36
step 0
Ar 1.00319 0.997079 0.0
Ar 1.00303 3.00121 0.0
Ar 0.999687 4.99624 0.0
Ar 0.999821 6.99858 0.0
Ar 0.996658 9.00175 0.0
Ar 0.995793 11.0025 0.0
Ar 3.00461 0.995252 0.0
Ar 3.00515 3.00142 0.0
Ar 3.00135 4.99531 0.0
Ar 2.99546 7.00049 0.0
Ar 2.99923 8.99571 0.0
Ar 3.00497 10.9976 0.0
Ar 4.99613 1.00143 0.0
Ar 4.99905 3.00508 0.0
Ar 4.9999 5.00384 0.0
Ar 5.00203 6.99975 0.0
Ar 4.99536 9.00467 0.0
Ar 5.00086 10.9991 0.0
Ar 6.99539 0.997553 0.0
Ar 6.99764 3.00208 0.0
Ar 7.00133 5.00358 0.0
Ar 6.99696 6.99915 0.0
Ar 6.99705 9.0028 0.0
Ar 6.99948 10.9973 0.0
Ar 9.00091 0.995557 0.0
Ar 9.00365 2.99974 0.0
Ar 8.99918 5.00451 0.0
Ar 9.0025 6.99851 0.0
Ar 9.00093 9.00045 0.0
Ar 9.00484 11.0037 0.0
Ar 11.0027 1.00064 0.0
Ar 11.0011 3.0049 0.0
Ar 11.0013 4.998 0.0
Ar 10.9982 6.9969 0.0
Ar 10.9954 8.99948 0.0
Ar 10.9992 10.9982 0.0
36
step 20
Ar 1.06703 0.938429 0.0
Ar 1.06352 3.0257 0.0
Ar 0.993368 4.92095 0.0
Ar 0.99639 6.97019 0.0
Ar 0.929785 9.03685 0.0
Ar 0.911418 11.0519 0.0
Ar 3.09718 0.900142 0.0
Ar 3.10836 3.03011 0.0
Ar 3.02832 4.90137 0.0
Ar 2.90443 7.01056 0.0
Ar 2.98393 8.90982 0.0
Ar 3.10457 10.9491 0.0
Ar 4.91864 1.02992 0.0
Ar 4.97999 3.10669 0.0
Ar 4.99777 5.08076 0.0
Ar 5.04292 6.99452 0.0
Ar 4.9025 9.09821 0.0
Ar 5.01798 10.9809 0.0
Ar 6.90304 0.948534 0.0
Ar 6.95027 3.04368 0.0
Ar 7.02796 5.07525 0.0
Ar 6.93598 6.98206 0.0
Ar 6.93804 9.05898 0.0
Ar 6.98891 10.9437 0.0
Ar 9.01913 0.906407 0.0
Ar 9.07686 2.99459 0.0
Ar 8.98271 5.09497 0.0
Ar 9.05274 6.96849 0.0
Ar 9.01985 9.00948 0.0
Ar 9.10189 11.0777 0.0
Ar 11.0568 1.0134 0.0
Ar 11.0229 3.10309 0.0
Ar 11.0274 4.95794 0.0
Ar 10.9619 6.93476 0.0
Ar 10.9029 8.98915 0.0
Ar 10.9827 10.9617 0.0
36
step 40
Ar 1.13052 0.878535 0.0
Ar 1.12391 3.05152 0.0
Ar 0.98673 4.84458 0.0
Ar 0.993813 6.94174 0.0
Ar 0.862779 9.07208 0.0
Ar 0.825969 11.1021 0.0
Ar 3.19156 0.80438 0.0
Ar 3.21275 3.06061 0.0
Ar 3.05569 4.806 0.0
Ar 2.81224 7.02189 0.0
Ar 2.96943 8.82323 0.0
Ar 3.20562 10.9013 0.0
Ar 4.83971 1.05794 0.0
Ar 4.96003 3.2087 0.0
Ar 4.99538 5.15797 0.0
Ar 5.08516 6.98809 0.0
Ar 4.80913 9.193 0.0
Ar 5.03439 10.9613 0.0
Ar 6.81015 0.899128 0.0
Ar 6.90213 3.08562 0.0
Ar 7.05489 5.14784 0.0
Ar 6.8737 6.96388 0.0
Ar 6.87888 9.1165 0.0
Ar 6.97743 10.8892 0.0
Ar 9.03789 0.81532 0.0
Ar 9.15092 2.98954 0.0
Ar 8.96582 5.18686 0.0
Ar 9.10411 6.93716 0.0
Ar 9.04023 9.01836 0.0
Ar 9.20021 11.1535 0.0
Ar 11.1109 1.02585 0.0
Ar 11.0442 3.20283 0.0
Ar 11.0539 4.9168 0.0
Ar 10.9247 6.87226 0.0
Ar 10.8095 8.97936 0.0
Ar 10.9657 10.9251 0.0
36
step 60
Ar 1.19318 0.816126 0.0
Ar 1.18399 3.08015 0.0
Ar 0.979479 4.76579 0.0
Ar 0.993185 6.91326 0.0
Ar 0.795517 9.10759 0.0
Ar 0.73882 11.1539 0.0
Ar 3.29066 0.707936 0.0
Ar 3.31981 3.09514 0.0
Ar 3.08412 4.70725 0.0
Ar 2.71777 7.03579 0.0
Ar 2.95628 8.73507 0.0
Ar 3.30975 10.8544 0.0
Ar 4.75674 1.08462 0.0
Ar 4.93758 3.3114 0.0
Ar 4.99265 5.23596 0.0
Ar 5.13027 6.9792 0.0
Ar 4.71466 9.29071 0.0
Ar 5.04902 10.9389 0.0
Ar 6.71636 0.849128 0.0
Ar 6.85269 3.12812 0.0
Ar 7.08235 5.22242 0.0
Ar 6.80874 6.94347 0.0
Ar 6.81959 9.17702 0.0
Ar 6.96421 10.8324 0.0
Ar 9.05785 0.719226 0.0
Ar 9.22655 2.98472 0.0
Ar 8.94818 5.28203 0.0
Ar 9.15764 6.90268 0.0
Ar 9.06388 9.02696 0.0
Ar 9.30093 11.2337 0.0
Ar 11.1652 1.03775 0.0
Ar 11.0645 3.30647 0.0
Ar 11.0812 4.87258 0.0
Ar 10.8856 6.8091 0.0
Ar 10.7136 8.9706 0.0
Ar 10.9475 10.8884 0.0
36
step 80
Ar 1.25422 0.749861 0.0
Ar 1.24353 3.11371 0.0
Ar 0.971239 4.68248 0.0
Ar 0.996067 6.88488 0.0
Ar 0.727887 9.14346 0.0
Ar 0.649358 11.2087 0.0
Ar 3.39954 0.611814 0.0
Ar 3.43184 3.13694 0.0
Ar 3.11451 4.60199 0.0
Ar 2.61974 7.05378 0.0
Ar 2.94459 8.64407 0.0
Ar 3.41917 10.8086 0.0
Ar 4.66489 1.1082 0.0
Ar 4.9099 3.4148 0.0
Ar 4.98989 5.31575 0.0
Ar 5.18037 6.9663 0.0
Ar 4.61888 9.39352 0.0
Ar 5.06011 10.9116 0.0
Ar 6.6214 0.79839 0.0
Ar 6.80156 3.17135 0.0
Ar 7.11049 5.30038 0.0
Ar 6.73901 6.91933 0.0
Ar 6.76025 9.24317 0.0
Ar 6.94837 10.7712 0.0
Ar 9.08042 0.612551 0.0
Ar 9.30435 2.98034 0.0
Ar 8.92995 5.38344 0.0
Ar 9.2144 6.86215 0.0
Ar 9.09348 9.03507 0.0
Ar 9.40465 11.3232 0.0
Ar 11.2201 1.04872 0.0
Ar 11.0836 3.41829 0.0
Ar 11.1097 4.8213 0.0
Ar 10.8427 6.74494 0.0
Ar 10.6128 8.96341 0.0
Ar 10.9271 10.8523 0.0
36
step 100
Ar 1.31253 0.678418 0.0
Ar 1.30204 3.15531 0.0
Ar 0.962052 4.59172 0.0
Ar 1.00479 6.857 0.0
Ar 0.659609 9.17997 0.0
Ar 0.557701 11.2676 0.0
Ar 3.52528 0.518983 0.0
Ar 3.55204 3.19192 0.0
Ar 3.14852 4.48506 0.0
Ar 2.51629 7.07794 0.0
Ar 2.93379 8.5483 0.0
Ar 3.5372 10.7635 0.0
Ar 4.55736 1.12464 0.0
Ar 4.87232 3.51818 0.0
Ar 4.98774 5.39898 0.0
Ar 5.23907 6.94708 0.0
Ar 4.52168 9.50543 0.0
Ar 5.06475 10.8766 0.0
Ar 6.52488 0.746656 0.0
Ar 6.74825 3.21542 0.0
Ar 7.13921 5.38354 0.0
Ar 6.66116 6.88963 0.0
Ar 6.70129 9.3192 0.0
Ar 6.92855 10.7016 0.0
Ar 9.10869 0.487404 0.0
Ar 9.38501 2.97665 0.0
Ar 8.91192 5.49578 0.0
Ar 9.27562 6.81082 0.0
Ar 9.13359 9.04236 0.0
Ar 9.51098 11.4289 0.0
Ar 11.2756 1.05828 0.0
Ar 11.1015 3.5458 0.0
Ar 11.1398 4.75542 0.0
Ar 10.7936 6.67968 0.0
Ar 10.5027 8.95833 0.0
Ar 10.903 10.8178 0.0
36
step 120
Ar 1.36659 0.600561 0.0
Ar 1.35808 3.20978 0.0
Ar 0.952572 4.48885 0.0
Ar 1.02301 6.83045 0.0
Ar 0.590501 9.21732 0.0
Ar 0.464411 11.3315 0.0
Ar 3.66269 0.427137 0.0
Ar 3.68421 3.26915 0.0
Ar 3.19 4.34914 0.0
Ar 2.4053 7.1106 0.0
Ar 2.92225 8.44482 0.0
Ar 3.67082 10.716 0.0
Ar 4.43952 1.13531 0.0
Ar 4.81718 3.61972 0.0
Ar 4.9873 5.48831 0.0
Ar 5.31226 6.91808 0.0
Ar 4.42245 9.63462 0.0
Ar 5.05705 10.8297 0.0
Ar 6.42656 0.693782 0.0
Ar 6.69255 3.26051 0.0
Ar 7.16774 5.47443 0.0
Ar 6.56964 6.85232 0.0
Ar 6.64396 9.41201 0.0
Ar 6.90284 10.617 0.0
Ar 9.12698 0.382308 0.0
Ar 9.46918 2.97409 0.0
Ar 8.89636 5.6261 0.0
Ar 9.34256 6.74172 0.0
Ar 9.1919 9.04831 0.0
Ar 9.63855 11.5102 0.0
Ar 11.3316 1.06573 0.0
Ar 11.118 3.68007 0.0
Ar 11.1719 4.68367 0.0
Ar 10.7342 6.61357 0.0
Ar 10.3757 8.95597 0.0
Ar 10.8735 10.7871 0.0
36
step 140
Ar 1.41462 0.515431 0.0
Ar 1.40885 3.28386 0.0
Ar 0.944701 4.36739 0.0
Ar 1.05658 6.8072 0.0
Ar 0.520439 9.25563 0.0
Ar 0.370372 11.4011 0.0
Ar 3.75535 0.283894 0.0
Ar 3.81779 3.3547 0.0
Ar 3.237 4.20324 0.0
Ar 2.2839 7.15394 0.0
Ar 2.90666 8.32928 0.0
Ar 3.82967 10.6635 0.0
Ar 4.3681 1.19127 0.0
Ar 4.75664 3.72445 0.0
Ar 4.99071 5.58812 0.0
Ar 5.40202 6.87473 0.0
Ar 4.32342 9.79043 0.0
Ar 5.02597 10.7652 0.0
Ar 6.32653 0.639591 0.0
Ar 6.63459 3.30681 0.0
Ar 7.19472 5.57592 0.0
Ar 6.4626 6.80462 0.0
Ar 6.588 9.52118 0.0
Ar 6.87082 10.5184 0.0
Ar 9.08537 0.384244 0.0
Ar 9.55728 2.97338 0.0
Ar 8.88177 5.76883 0.0
Ar 9.42251 6.65982 0.0
Ar 9.25235 9.05428 0.0
Ar 9.8411 11.4765 0.0
Ar 11.3886 1.07034 0.0
Ar 11.1244 3.66054 0.0
Ar 11.2156 4.76611 0.0
Ar 10.6576 6.54699 0.0
Ar 10.2484 8.95513 0.0
Ar 10.8351 10.764 0.0
36
step 160
Ar 1.45488 0.42303 0.0
Ar 1.45985 3.3642 0.0
Ar 0.932724 4.241 0.0
Ar 1.11083 6.78993 0.0
Ar 0.449046 9.29528 0.0
Ar 0.276448 11.4767 0.0
Ar 3.8283 0.107118 0.0
Ar 3.88498 3.29485 0.0
Ar 3.22594 4.14482 0.0
Ar 2.15152 7.20948 0.0
Ar 2.88205 8.19662 0.0
Ar 3.90371 10.8084 0.0
Ar 4.31889 1.27117 0.0
Ar 4.82154 3.88836 0.0
Ar 5.002 5.70483 0.0
Ar 5.40404 6.81814 0.0
Ar 4.33243 9.77238 0.0
Ar 4.97419 10.6849 0.0
Ar 6.22474 0.584265 0.0
Ar 6.57437 3.35427 0.0
Ar 7.2178 5.69122 0.0
Ar 6.44397 6.73629 0.0
Ar 6.49718 9.52561 0.0
Ar 6.86832 10.527 0.0
Ar 9.04662 0.386496 0.0
Ar 9.65049 2.9751 0.0
Ar 8.81966 5.84585 0.0
Ar 9.56132 6.64344 0.0
Ar 9.16121 9.07599 0.0
Ar 10.0511 11.4375 0.0
Ar 11.4467 1.07128 0.0
Ar 11.1252 3.58797 0.0
Ar 11.2653 4.90179 0.0
Ar 10.5653 6.47841 0.0
Ar 10.2746 8.94041 0.0
Ar 10.7928 10.7459 0.0
36
step 180
Ar 1.48587 0.32406 0.0
Ar 1.56978 3.3552 0.0
Ar 0.858696 4.20556 0.0
Ar 1.15257 6.76562 0.0
Ar 0.375886 9.33641 0.0
Ar 0.182775 11.5587 0.0
Ar 3.91154 11.9599 0.0
Ar 3.94814 3.16613 0.0
Ar 3.18259 4.13344 0.0
Ar 2.04483 7.28983 0.0
Ar 2.84497 8.04698 0.0
Ar 3.90984 11.0295 0.0
Ar 4.26305 1.33296 0.0
Ar 4.92367 4.07442 0.0
Ar 5.0166 5.81821 0.0
Ar 5.30581 6.77043 0.0
Ar 4.38281 9.66544 0.0
Ar 4.95162 10.605 0.0
Ar 6.12092 0.527731 0.0
Ar 6.5111 3.40318 0.0
Ar 7.23503 5.82327 0.0
Ar 6.5352 6.64212 0.0
Ar 6.37797 9.45564 0.0
Ar 6.88831 10.6129 0.0
Ar 9.02173 0.375706 0.0
Ar 9.75127 2.98001 0.0
Ar 8.72596 5.8892 0.0
Ar 9.57661 6.69171 0.0
Ar 9.03318 9.10177 0.0
Ar 10.1565 11.5035 0.0
Ar 11.5066 1.06706 0.0
Ar 11.1235 3.53279 0.0
Ar 11.314 5.0212 0.0
Ar 10.6227 6.37448 0.0
Ar 10.3399 8.92378 0.0
Ar 10.8485 10.6363 0.0
36
step 200
Ar 1.50664 0.219886 0.0
Ar 1.70196 3.3205 0.0
Ar 0.759993 4.19854 0.0
Ar 1.12113 6.6989 0.0
Ar 0.299802 9.37935 0.0
Ar 0.0884775 11.6474 0.0
Ar 4.00387 0.170607 0.0
Ar 4.01303 3.0628 0.0
Ar 3.15235 4.10485 0.0
Ar 1.97824 7.38797 0.0
Ar 2.84139 7.92248 0.0
Ar 3.91214 10.8936 0.0
Ar 4.20352 1.37899 0.0
Ar 5.01178 4.25085 0.0
Ar 4.98931 5.77407 0.0
Ar 5.27214 6.87472 0.0
Ar 4.42092 9.56046 0.0
Ar 4.94761 10.5381 0.0
Ar 6.01494 0.469622 0.0
Ar 6.44332 3.45416 0.0
Ar 7.31502 5.90128 0.0
Ar 6.55363 6.60264 0.0
Ar 6.26231 9.40584 0.0
Ar 6.89752 10.6823 0.0
Ar 9.00896 0.355582 0.0
Ar 9.8639 2.9897 0.0
Ar 8.63282 5.94353 0.0
Ar 9.50309 6.74761 0.0
Ar 8.92576 9.12476 0.0
Ar 10.2207 11.6131 0.0
Ar 11.5694 1.05532 0.0
Ar 11.1146 3.48549 0.0
Ar 11.3596 5.13736 0.0
Ar 10.7609 6.24191 0.0
Ar 10.3875 8.91336 0.0
Ar 10.9417 10.4923 0.0
36
step 220
Ar 1.51696 0.112329 0.0
Ar 1.82542 3.30317 0.0
Ar 0.668946 4.17895 0.0
Ar 1.06879 6.61692 0.0
Ar 0.218038 9.42549 0.0
Ar 11.9918 11.7455 0.0
Ar 4.10138 0.412428 0.0
Ar 4.07228 2.97676 0.0
Ar 3.13143 4.05839 0.0
Ar 1.82976 7.43365 0.0
Ar 2.94021 7.86572 0.0
Ar 3.903 10.7249 0.0
Ar 4.14251 1.42058 0.0
Ar 5.09597 4.42749 0.0
Ar 4.95803 5.69171 0.0
Ar 5.26946 7.00279 0.0
Ar 4.45257 9.46246 0.0
Ar 4.96901 10.4724 0.0
Ar 5.90615 0.409564 0.0
Ar 6.36927 3.50842 0.0
Ar 7.49271 5.90025 0.0
Ar 6.46662 6.64567 0.0
Ar 6.14673 9.3734 0.0
Ar 6.8969 10.7393 0.0
Ar 9.0094 0.327371 0.0
Ar 9.99486 3.00666 0.0
Ar 8.53695 6.01129 0.0
Ar 9.43124 6.78387 0.0
Ar 8.83167 9.14574 0.0
Ar 10.2865 11.7163 0.0
Ar 11.6359 1.03083 0.0
Ar 11.0918 3.43817 0.0
Ar 11.4045 5.25405 0.0
Ar 10.8866 6.10667 0.0
Ar 10.4259 8.91036 0.0
Ar 11.0306 10.3604 0.0
36
step 240
Ar 1.5175 0.00325309 0.0
Ar 1.94834 3.30017 0.0
Ar 0.580325 4.15346 0.0
Ar 1.01346 6.53263 0.0
Ar 0.124046 9.47872 0.0
Ar 11.89 11.8595 0.0
Ar 4.20035 0.504747 0.0
Ar 4.1244 2.89545 0.0
Ar 3.11215 3.99549 0.0
Ar 1.68933 7.48147 0.0
Ar 3.03313 7.80843 0.0
Ar 3.88494 10.5507 0.0
Ar 4.08464 1.61329 0.0
Ar 5.18155 4.61094 0.0
Ar 4.93572 5.61398 0.0
Ar 5.28463 7.1058 0.0
Ar 4.48423 9.38461 0.0
Ar 5.01285 10.395 0.0
Ar 5.79285 0.347453 0.0
Ar 6.28754 3.56776 0.0
Ar 7.53829 5.8919 0.0
Ar 6.3684 6.68345 0.0
Ar 6.0243 9.3548 0.0
Ar 6.88855 10.7894 0.0
Ar 9.02411 0.292338 0.0
Ar 10.1287 3.02475 0.0
Ar 8.57216 6.10725 0.0
Ar 9.35445 6.80646 0.0
Ar 8.74534 9.16532 0.0
Ar 10.3505 11.8195 0.0
Ar 11.7066 0.985115 0.0
Ar 11.071 3.39459 0.0
Ar 11.5506 5.21033 0.0
Ar 10.9087 6.12867 0.0
Ar 10.4629 8.91699 0.0
Ar 11.1235 10.2264 0.0
36
step 260
Ar 1.50987 11.8942 0.0
Ar 2.08207 3.31095 0.0
Ar 0.4838 4.13132 0.0
Ar 0.964471 6.45903 0.0
Ar 0.0219275 9.53438 0.0
Ar 11.7834 11.9508 0.0
Ar 4.30809 0.546796 0.0
Ar 4.17019 2.81918 0.0
Ar 3.08591 3.91451 0.0
Ar 1.55744 7.52122 0.0
Ar 3.10981 7.74711 0.0
Ar 3.88379 10.3585 0.0
Ar 4.02628 1.85768 0.0
Ar 5.30772 4.66996 0.0
Ar 4.88468 5.6641 0.0
Ar 5.30773 7.19527 0.0
Ar 4.51894 9.33111 0.0
Ar 5.05956 10.3037 0.0
Ar 5.67131 0.283705 0.0
Ar 6.19677 3.63485 0.0
Ar 7.45739 5.8741 0.0
Ar 6.27011 6.71285 0.0
Ar 5.88423 9.35151 0.0
Ar 6.87361 10.8356 0.0
Ar 9.05414 0.251861 0.0
Ar 10.1424 2.99568 0.0
Ar 8.63766 6.14344 0.0
Ar 9.36538 6.90644 0.0
Ar 8.66355 9.18404 0.0
Ar 10.4143 11.927 0.0
Ar 11.7755 0.955768 0.0
Ar 11.1765 3.40342 0.0
Ar 11.7404 5.10279 0.0
Ar 10.8924 6.2058 0.0
Ar 10.5051 8.93713 0.0
Ar 11.2137 10.0843 0.0
36
step 280
Ar 1.49603 11.7861 0.0
Ar 2.2102 3.32098 0.0
Ar 0.374617 4.10618 0.0
Ar 0.923075 6.40224 0.0
Ar 0.0977317 9.46498 0.0
Ar 11.6647 11.9039 0.0
Ar 4.42837 0.604476 0.0
Ar 4.24777 2.98075 0.0
Ar 3.0718 3.82789 0.0
Ar 1.4235 7.54258 0.0
Ar 3.17874 7.68496 0.0
Ar 3.91151 10.1501 0.0
Ar 3.93344 1.85293 0.0
Ar 5.46977 4.64182 0.0
Ar 4.81504 5.79769 0.0
Ar 5.29667 7.29482 0.0
Ar 4.55776 9.28479 0.0
Ar 5.10644 10.2103 0.0
Ar 5.53356 0.220591 0.0
Ar 6.09304 3.71586 0.0
Ar 7.38504 5.86902 0.0
Ar 6.21076 6.71402 0.0
Ar 5.71538 9.36368 0.0
Ar 6.85254 10.8796 0.0
Ar 9.10048 0.207506 0.0
Ar 10.1217 2.95313 0.0
Ar 8.60676 6.09902 0.0
Ar 9.45818 7.08097 0.0
Ar 8.5846 9.20215 0.0
Ar 10.485 0.0396261 0.0
Ar 11.8396 1.05794 0.0
Ar 11.3284 3.43553 0.0
Ar 11.9263 5.00298 0.0
Ar 10.8815 6.27216 0.0
Ar 10.5604 8.97639 0.0
Ar 11.1096 10.0524 0.0
36
step 300
Ar 1.47782 11.679 0.0
Ar 2.20868 3.25502 0.0
Ar 0.324111 3.94469 0.0
Ar 0.8866 6.36247 0.0
Ar 0.20961 9.36481 0.0
Ar 11.541 11.8489 0.0
Ar 4.53854 0.684632 0.0
Ar 4.3237 3.20009 0.0
Ar 3.1998 3.80801 0.0
Ar 1.28403 7.54297 0.0
Ar 3.24535 7.62302 0.0
Ar 3.93614 9.97552 0.0
Ar 3.83885 1.78284 0.0
Ar 5.59984 4.67351 0.0
Ar 4.76224 5.92653 0.0
Ar 5.25558 7.40422 0.0
Ar 4.60179 9.17556 0.0
Ar 5.09294 10.2322 0.0
Ar 5.39955 0.15062 0.0
Ar 6.01013 3.75302 0.0
Ar 7.32425 5.87646 0.0
Ar 6.1842 6.68705 0.0
Ar 5.60867 9.29133 0.0
Ar 6.82567 10.922 0.0
Ar 9.16374 0.161101 0.0
Ar 10.1203 2.91827 0.0
Ar 8.56449 6.06394 0.0
Ar 9.5449 7.23976 0.0
Ar 8.50746 9.21973 0.0
Ar 10.5526 0.156643 0.0
Ar 11.8988 1.16162 0.0
Ar 11.4678 3.46793 0.0
Ar 0.0473029 5.04082 0.0
Ar 10.8703 6.3362 0.0
Ar 10.6283 9.03152 0.0
Ar 10.9551 10.0381 0.0
36
step 320
Ar 1.45657 11.5729 0.0
Ar 2.18481 3.17579 0.0
Ar 0.473854 3.84812 0.0
Ar 0.851038 6.33719 0.0
Ar 0.30122 9.26949 0.0
Ar 11.503 11.7819 0.0
Ar 4.54135 0.843333 0.0
Ar 4.38245 3.41962 0.0
Ar 3.36799 3.79081 0.0
Ar 1.13844 7.52189 0.0
Ar 3.31314 7.56178 0.0
Ar 3.92716 9.87278 0.0
Ar 3.75961 1.7072 0.0
Ar 5.65965 4.84712 0.0
Ar 4.72531 6.0581 0.0
Ar 5.22051 7.50108 0.0
Ar 4.5779 8.98517 0.0
Ar 5.01994 10.3127 0.0
Ar 5.36221 0.0173231 0.0
Ar 5.98699 3.65802 0.0
Ar 7.27222 5.89626 0.0
Ar 6.15347 6.65443 0.0
Ar 5.66648 9.16761 0.0
Ar 6.79331 10.9635 0.0
Ar 9.24536 0.114679 0.0
Ar 10.1333 2.88912 0.0
Ar 8.50577 6.0338 0.0
Ar 9.6313 7.38774 0.0
Ar 8.43154 9.23683 0.0
Ar 10.5273 0.3034 0.0
Ar 11.9492 1.24377 0.0
Ar 11.4102 3.4002 0.0
Ar 0.154486 5.11821 0.0
Ar 10.8567 6.40124 0.0
Ar 10.6847 9.02468 0.0
Ar 10.8315 10.0822 0.0
36
step 340
Ar 1.43272 11.4675 0.0
Ar 2.17726 3.10641 0.0
Ar 0.662973 3.79207 0.0
Ar 0.810981 6.31992 0.0
Ar 0.38148 9.17409 0.0
Ar 11.495 11.7115 0.0
Ar 4.53336 1.01064 0.0
Ar 4.50076 3.62417 0.0
Ar 3.46592 3.77721 0.0
Ar 0.98736 7.4804 0.0
Ar 3.38533 7.50181 0.0
Ar 3.92526 9.79163 0.0
Ar 3.68446 1.63072 0.0
Ar 5.71605 5.0214 0.0
Ar 4.70606 6.19634 0.0
Ar 5.19475 7.58444 0.0
Ar 4.53996 8.78083 0.0
Ar 4.93653 10.3599 0.0
Ar 5.33418 11.8747 0.0
Ar 5.95481 3.57193 0.0
Ar 7.22566 5.92829 0.0
Ar 6.1124 6.6198 0.0
Ar 5.74587 9.06178 0.0
Ar 6.75489 11.005 0.0
Ar 9.34939 0.0714277 0.0
Ar 10.1639 2.86647 0.0
Ar 8.42636 6.00475 0.0
Ar 9.72235 7.52942 0.0
Ar 8.35654 9.25348 0.0
Ar 10.4579 0.459415 0.0
Ar 11.9922 1.3133 0.0
Ar 11.2956 3.3061 0.0
Ar 0.27132 5.1894 0.0
Ar 10.8401 6.4693 0.0
Ar 10.7347 8.96155 0.0
Ar 10.7258 10.1829 0.0
36
step 360
Ar 1.40636 11.3629 0.0
Ar 2.17802 3.04551 0.0
Ar 0.840549 3.74205 0.0
Ar 0.762705 6.30118 0.0
Ar 0.454694 9.07566 0.0
Ar 11.4704 11.6543 0.0
Ar 4.58247 1.13108 0.0
Ar 4.71494 3.81221 0.0
Ar 3.47104 3.77265 0.0
Ar 0.832131 7.42454 0.0
Ar 3.4664 7.44418 0.0
Ar 3.94719 9.70113 0.0
Ar 3.56221 1.58981 0.0
Ar 5.77199 5.19632 0.0
Ar 4.70776 6.3456 0.0
Ar 5.16968 7.66442 0.0
Ar 4.52143 8.58426 0.0
Ar 4.84856 10.393 0.0
Ar 5.29839 11.7344 0.0
Ar 5.90571 3.5001 0.0
Ar 7.17837 5.97095 0.0
Ar 6.06179 6.57828 0.0
Ar 5.79387 8.9533 0.0
Ar 6.70892 11.0477 0.0
Ar 9.46865 0.0314938 0.0
Ar 10.2085 2.84842 0.0
Ar 8.32644 5.97596 0.0
Ar 9.8214 7.66721 0.0
Ar 8.28227 9.26975 0.0
Ar 10.3955 0.601053 0.0
Ar 0.029072 1.37598 0.0
Ar 11.1819 3.21155 0.0
Ar 0.398708 5.2667 0.0
Ar 10.8202 6.54286 0.0
Ar 10.7873 8.91347 0.0
Ar 10.6245 10.27 0.0
36
step 380
Ar 1.37754 11.2585 0.0
Ar 2.18065 2.99473 0.0
Ar 1.02095 3.69305 0.0
Ar 0.721796 6.31499 0.0
Ar 0.522482 8.97218 0.0
Ar 11.4322 11.6044 0.0
Ar 4.64599 1.23625 0.0
Ar 4.93205 3.99914 0.0
Ar 3.48189 3.76203 0.0
Ar 0.674146 7.37423 0.0
Ar 3.56418 7.39071 0.0
Ar 3.98832 9.59288 0.0
Ar 3.42877 1.55857 0.0
Ar 5.8298 5.38826 0.0
Ar 4.73443 6.51248 0.0
Ar 5.17408 7.70225 0.0
Ar 4.48342 8.43621 0.0
Ar 4.76362 10.4297 0.0
Ar 5.26084 11.5828 0.0
Ar 5.8393 3.43752 0.0
Ar 7.11343 6.0212 0.0
Ar 6.00044 6.52006 0.0
Ar 5.81081 8.83065 0.0
Ar 6.65304 11.0925 0.0
Ar 9.5728 11.9781 0.0
Ar 10.1603 2.79477 0.0
Ar 8.21633 5.94773 0.0
Ar 9.93236 7.80345 0.0
Ar 8.20818 9.28575 0.0
Ar 10.3653 0.746599 0.0
Ar 0.0607277 1.43539 0.0
Ar 11.1674 3.1519 0.0
Ar 0.518064 5.30365 0.0
Ar 10.797 6.62463 0.0
Ar 10.8382 8.87683 0.0
Ar 10.5292 10.3459 0.0
36
step 400
Ar 1.34659 11.1542 0.0
Ar 2.17813 2.95767 0.0
Ar 1.21388 3.63853 0.0
Ar 0.704569 6.3579 0.0
Ar 0.585121 8.86114 0.0
Ar 11.3821 11.5557 0.0
Ar 4.6902 1.3431 0.0
Ar 5.10653 4.21402 0.0
Ar 3.49675 3.74672 0.0
Ar 0.508191 7.39671 0.0
Ar 3.6908 7.34432 0.0
Ar 4.04712 9.46965 0.0
Ar 3.31469 1.52462 0.0
Ar 5.88807 5.53541 0.0
Ar 4.78536 6.70071 0.0
Ar 5.27597 7.62747 0.0
Ar 4.35184 8.40049 0.0
Ar 4.68298 10.4741 0.0
Ar 5.22556 11.4122 0.0
Ar 5.80491 3.35262 0.0
Ar 7.00528 6.07487 0.0
Ar 5.93267 6.51664 0.0
Ar 5.79785 8.68664 0.0
Ar 6.58356 11.14 0.0
Ar 9.67128 11.9143 0.0
Ar 10.046 2.71508 0.0
Ar 8.11351 5.91906 0.0
Ar 10.0613 7.94189 0.0
Ar 8.13386 9.30159 0.0
Ar 10.3542 0.895186 0.0
Ar 0.0872085 1.49411 0.0
Ar 11.223 3.11494 0.0
Ar 0.617754 5.24174 0.0
Ar 10.7704 6.71773 0.0
Ar 10.882 8.83812 0.0
Ar 10.4407 10.4209 0.0
36
step 420
Ar 1.31373 11.0497 0.0
Ar 2.18218 2.92503 0.0
Ar 1.40822 3.58621 0.0
Ar 0.696648 6.34832 0.0
Ar 0.641604 8.7367 0.0
Ar 11.3178 11.5037 0.0
Ar 4.71795 1.45119 0.0
Ar 5.26694 4.44832 0.0
Ar 3.50867 3.72686 0.0
Ar 0.330076 7.49486 0.0
Ar 3.85304 7.30806 0.0
Ar 4.11681 9.37699 0.0
Ar 3.216 1.49167 0.0
Ar 5.94184 5.48031 0.0
Ar 4.78187 6.8078 0.0
Ar 5.42815 7.632 0.0
Ar 4.2315 8.32732 0.0
Ar 4.56901 10.4629 0.0
Ar 5.23183 11.2764 0.0
Ar 5.78383 3.25757 0.0
Ar 6.86043 6.12607 0.0
Ar 5.87455 6.72781 0.0
Ar 5.76762 8.53966 0.0
Ar 6.49541 11.1898 0.0
Ar 9.78751 11.8598 0.0
Ar 9.95134 2.63816 0.0
Ar 8.01047 5.89052 0.0
Ar 10.2051 8.07522 0.0
Ar 8.05921 9.31735 0.0
Ar 10.3389 1.02802 0.0
Ar 0.108329 1.55397 0.0
Ar 11.2629 3.06874 0.0
Ar 0.716842 5.16606 0.0
Ar 10.7412 6.82623 0.0
Ar 10.923 8.79587 0.0
Ar 10.3596 10.5048 0.0
36
step 440
Ar 1.27923 10.9451 0.0
Ar 2.28467 2.81679 0.0
Ar 1.51277 3.61492 0.0
Ar 0.682449 6.3354 0.0
Ar 0.687719 8.59206 0.0
Ar 11.232 11.4447 0.0
Ar 4.73496 1.56 0.0
Ar 5.42932 4.66054 0.0
Ar 3.51409 3.70186 0.0
Ar 0.154859 7.59855 0.0
Ar 3.9051 7.27333 0.0
Ar 4.1884 9.34784 0.0
Ar 3.12647 1.46271 0.0
Ar 5.99334 5.43656 0.0
Ar 4.80505 6.76613 0.0
Ar 5.4249 7.66265 0.0
Ar 4.16298 8.24368 0.0
Ar 4.40816 10.3824 0.0
Ar 5.30117 11.1968 0.0
Ar 5.75343 3.18044 0.0
Ar 6.73263 6.17801 0.0
Ar 5.9266 6.73113 0.0
Ar 5.82578 8.66838 0.0
Ar 6.38556 11.2402 0.0
Ar 9.92746 11.8108 0.0
Ar 9.87578 2.56026 0.0
Ar 7.88889 5.86551 0.0
Ar 10.2636 8.09839 0.0
Ar 7.98403 9.33315 0.0
Ar 10.3176 1.14575 0.0
Ar 0.123855 1.61701 0.0
Ar 11.2886 3.01219 0.0
Ar 0.817325 5.10496 0.0
Ar 10.7108 6.95596 0.0
Ar 11.0634 8.84603 0.0
Ar 10.287 10.6098 0.0
36
step 460
Ar 1.24338 10.8403 0.0
Ar 2.42558 2.68418 0.0
Ar 1.58984 3.67259 0.0
Ar 0.662471 6.31736 0.0
Ar 0.730072 8.44908 0.0
Ar 11.1134 11.3789 0.0
Ar 4.74561 1.67045 0.0
Ar 5.43624 4.64692 0.0
Ar 3.5107 3.66967 0.0
Ar 11.969 7.68629 0.0
Ar 3.80147 7.16001 0.0
Ar 4.25668 9.29055 0.0
Ar 3.04029 1.4422 0.0
Ar 6.10709 5.5453 0.0
Ar 4.90934 6.63935 0.0
Ar 5.3013 7.75161 0.0
Ar 4.15975 8.26992 0.0
Ar 4.26992 10.3663 0.0
Ar 5.30695 11.101 0.0
Ar 5.71816 3.11374 0.0
Ar 6.89235 6.1903 0.0
Ar 5.88527 6.70198 0.0
Ar 5.91184 8.90225 0.0
Ar 6.32603 11.2956 0.0
Ar 10.0945 11.7591 0.0
Ar 9.81648 2.47386 0.0
Ar 7.76465 5.83871 0.0
Ar 10.289 8.06634 0.0
Ar 7.90786 9.34895 0.0
Ar 10.2921 1.25905 0.0
Ar 0.1328 1.68574 0.0
Ar 11.3062 2.94462 0.0
Ar 0.918068 5.06123 0.0
Ar 10.6845 7.10598 0.0
Ar 11.2548 8.9299 0.0
Ar 10.2262 10.7407 0.0
36
step 480
Ar 1.20648 10.7353 0.0
Ar 2.57036 2.56038 0.0
Ar 1.67767 3.72282 0.0
Ar 0.641359 6.2876 0.0
Ar 0.780691 8.32792 0.0
Ar 11.0816 11.3005 0.0
Ar 4.75348 1.78477 0.0
Ar 5.4143 4.58667 0.0
Ar 3.49698 3.62762 0.0
Ar 11.7427 7.75222 0.0
Ar 3.7229 7.04318 0.0
Ar 4.33943 9.28709 0.0
Ar 2.95174 1.4388 0.0
Ar 6.11923 5.60393 0.0
Ar 4.80896 6.51837 0.0
Ar 5.16678 7.83538 0.0
Ar 4.16803 8.18279 0.0
Ar 4.15519 10.4081 0.0
Ar 5.20178 10.9756 0.0
Ar 5.67784 3.05279 0.0
Ar 6.93858 6.40787 0.0
Ar 5.96823 6.72377 0.0
Ar 5.98141 9.11996 0.0
Ar 6.35697 11.3643 0.0
Ar 10.192 11.8621 0.0
Ar 9.77382 2.37127 0.0
Ar 7.94041 5.67974 0.0
Ar 10.2945 8.14473 0.0
Ar 7.83007 9.36448 0.0
Ar 10.2618 1.38073 0.0
Ar 0.132664 1.76394 0.0
Ar 11.3209 2.86299 0.0
Ar 1.01852 5.03131 0.0
Ar 10.7163 7.16708 0.0
Ar 11.4453 8.98335 0.0
Ar 10.151 10.7405 0.0
36
step 500
Ar 1.16835 10.63 0.0
Ar 2.72115 2.45479 0.0
Ar 1.77095 3.77371 0.0
Ar 0.622809 6.24345 0.0
Ar 0.806585 8.20489 0.0
Ar 11.1615 11.1967 0.0
Ar 4.76243 1.90684 0.0
Ar 5.40576 4.53811 0.0
Ar 3.47145 3.57244 0.0
Ar 11.5157 7.84756 0.0
Ar 3.67874 6.94236 0.0
Ar 4.43322 9.30547 0.0
Ar 2.8634 1.44116 0.0
Ar 6.11275 5.65547 0.0
Ar 4.68752 6.42214 0.0
Ar 5.11885 7.87223 0.0
Ar 4.08661 8.07418 0.0
Ar 4.05922 10.4532 0.0
Ar 5.09303 10.8421 0.0
Ar 5.62972 2.99379 0.0
Ar 7.05007 6.61163 0.0
Ar 5.94765 6.78643 0.0
Ar 6.03881 9.33077 0.0
Ar 6.37455 11.4266 0.0
Ar 10.2043 0.0663313 0.0
Ar 9.71533 2.31088 0.0
Ar 8.15246 5.50343 0.0
Ar 10.2929 8.30322 0.0
Ar 7.74909 9.37996 0.0
Ar 10.2589 1.45345 0.0
Ar 0.118606 1.8569 0.0
Ar 11.3379 2.76148 0.0
Ar 1.11866 5.01051 0.0
Ar 10.7819 7.15263 0.0
Ar 11.6379 9.00033 0.0
Ar 10.0512 10.6748 0.0
36
step 520
Ar 1.12823 10.5238 0.0
Ar 2.86827 2.47065 0.0
Ar 1.86594 3.83275 0.0
Ar 0.609621 6.18446 0.0
Ar 0.799006 8.08352 0.0
Ar 11.211 11.0959 0.0
Ar 4.77817 2.04325 0.0
Ar 5.40847 4.50017 0.0
Ar 3.43188 3.49959 0.0
Ar 11.3739 8.04346 0.0
Ar 3.64981 6.86367 0.0
Ar 4.52805 9.32233 0.0
Ar 2.78903 1.34592 0.0
Ar 6.10213 5.71622 0.0
Ar 4.59352 6.34296 0.0
Ar 5.16364 7.86914 0.0
Ar 3.91762 7.98356 0.0
Ar 3.95866 10.4737 0.0
Ar 5.01134 10.7095 0.0
Ar 5.56859 2.93056 0.0
Ar 7.18598 6.78634 0.0
Ar 5.86275 6.85756 0.0
Ar 6.08777 9.54173 0.0
Ar 6.37696 11.4806 0.0
Ar 10.2288 0.260313 0.0
Ar 9.59616 2.36087 0.0
Ar 8.35544 5.3342 0.0
Ar 10.3274 8.44277 0.0
Ar 7.66264 9.39571 0.0
Ar 10.3281 1.40321 0.0
Ar 0.0970945 1.95592 0.0
Ar 11.3506 2.64773 0.0
Ar 1.2189 4.9942 0.0
Ar 10.7578 7.07468 0.0
Ar 11.8348 8.99587 0.0
Ar 9.97204 10.6332 0.0
36
step 540
Ar 1.08507 10.4163 0.0
Ar 3.01063 2.50618 0.0
Ar 1.96182 3.90374 0.0
Ar 0.604107 6.11118 0.0
Ar 0.760345 7.97352 0.0
Ar 11.2351 10.9948 0.0
Ar 4.78866 2.1819 0.0
Ar 5.41893 4.46984 0.0
Ar 3.38853 3.43193 0.0
Ar 11.2687 8.19601 0.0
Ar 3.59984 6.81225 0.0
Ar 4.62378 9.35377 0.0
Ar 2.71852 1.23074 0.0
Ar 6.08162 5.78931 0.0
Ar 4.55267 6.26165 0.0
Ar 5.19549 7.85111 0.0
Ar 3.77135 7.88979 0.0
Ar 3.83908 10.4662 0.0
Ar 4.96893 10.5696 0.0
Ar 5.50634 2.87543 0.0
Ar 7.29591 6.95229 0.0
Ar 5.77018 6.92103 0.0
Ar 6.12914 9.75682 0.0
Ar 6.37123 11.5276 0.0
Ar 10.2553 0.411989 0.0
Ar 9.48728 2.40411 0.0
Ar 8.55559 5.16757 0.0
Ar 10.3427 8.58392 0.0
Ar 7.56749 9.41272 0.0
Ar 10.4033 1.3939 0.0
Ar 0.163989 1.97292 0.0
Ar 11.2629 2.60832 0.0
Ar 1.31999 4.97793 0.0
Ar 10.7214 7.00324 0.0
Ar 0.0599097 9.01534 0.0
Ar 9.91421 10.605 0.0
36
step 560
Ar 1.03679 10.3049 0.0
Ar 3.09539 2.38879 0.0
Ar 2.05935 3.98749 0.0
Ar 0.608208 6.0245 0.0
Ar 0.695793 7.88199 0.0
Ar 11.2412 10.8912 0.0
Ar 4.68014 2.21608 0.0
Ar 5.43406 4.44374 0.0
Ar 3.39176 3.49999 0.0
Ar 11.2999 8.2699 0.0
Ar 3.53585 6.74741 0.0
Ar 4.72198 9.40621 0.0
Ar 2.65368 1.13775 0.0
Ar 6.04738 5.87472 0.0
Ar 4.5502 6.18479 0.0
Ar 5.19174 7.86008 0.0
Ar 3.64927 7.8198 0.0
Ar 3.73396 10.4426 0.0
Ar 4.93645 10.4093 0.0
Ar 5.5552 2.93604 0.0
Ar 7.39058 7.11368 0.0
Ar 5.69024 6.93429 0.0
Ar 6.16013 9.97817 0.0
Ar 6.36063 11.5672 0.0
Ar 10.2608 0.395257 0.0
Ar 9.39583 2.43242 0.0
Ar 8.75494 5.00187 0.0
Ar 10.231 8.77555 0.0
Ar 7.45996 9.43287 0.0
Ar 10.4996 1.57304 0.0
Ar 0.261824 1.96032 0.0
Ar 11.1292 2.58554 0.0
Ar 1.42216 4.9589 0.0
Ar 10.6944 6.95808 0.0
Ar 0.295504 9.02176 0.0
Ar 9.87478 10.5839 0.0
36
step 580
Ar 0.979708 10.1826 0.0
Ar 3.17319 2.23622 0.0
Ar 2.16659 4.07395 0.0
Ar 0.623791 5.92503 0.0
Ar 0.609126 7.81281 0.0
Ar 11.2317 10.7847 0.0
Ar 4.53728 2.23229 0.0
Ar 5.45198 4.41625 0.0
Ar 3.39084 3.58783 0.0
Ar 11.3568 8.34103 0.0
Ar 3.48246 6.64528 0.0
Ar 4.79253 9.31943 0.0
Ar 2.59649 1.06528 0.0
Ar 6.00716 5.94173 0.0
Ar 4.56314 6.1267 0.0
Ar 5.14307 7.92763 0.0
Ar 3.54459 7.7815 0.0
Ar 3.66045 10.4076 0.0
Ar 4.93318 10.3878 0.0
Ar 5.62517 3.02947 0.0
Ar 7.47693 7.27288 0.0
Ar 5.62292 6.89666 0.0
Ar 6.17691 10.2047 0.0
Ar 6.34658 11.5959 0.0
Ar 10.2682 0.373707 0.0
Ar 9.32246 2.45001 0.0
Ar 8.95415 4.83636 0.0
Ar 10.1212 8.96769 0.0
Ar 7.3375 9.4591 0.0
Ar 10.57 1.73417 0.0
Ar 0.338194 1.95686 0.0
Ar 11.0245 2.58104 0.0
Ar 1.51879 4.94555 0.0
Ar 10.6747 6.9289 0.0
Ar 0.524652 9.00518 0.0
Ar 9.85302 10.5662 0.0
36
step 600
Ar 0.912361 10.0427 0.0
Ar 3.26174 2.08314 0.0
Ar 2.30815 4.13308 0.0
Ar 0.653149 5.81265 0.0
Ar 0.502392 7.77038 0.0
Ar 11.2065 10.6749 0.0
Ar 4.38842 2.26277 0.0
Ar 5.47253 4.38037 0.0
Ar 3.3708 3.66311 0.0
Ar 11.4292 8.41492 0.0
Ar 3.45067 6.53917 0.0
Ar 4.84909 9.13343 0.0
Ar 2.54934 1.01319 0.0
Ar 5.98705 5.91882 0.0
Ar 4.58829 6.09147 0.0
Ar 5.08167 8.00542 0.0
Ar 3.45082 7.7388 0.0
Ar 3.61669 10.3661 0.0
Ar 4.9483 10.4572 0.0
Ar 5.67708 3.12866 0.0
Ar 7.55863 7.43136 0.0
Ar 5.50414 6.93364 0.0
Ar 6.18131 10.4381 0.0
Ar 6.32842 11.6055 0.0
Ar 10.2803 0.366243 0.0
Ar 9.26679 2.46023 0.0
Ar 9.15342 4.6704 0.0
Ar 10.0273 9.15937 0.0
Ar 7.19984 9.49446 0.0
Ar 10.508 1.66461 0.0
Ar 0.39867 1.95898 0.0
Ar 11.0469 2.78968 0.0
Ar 1.58732 4.96614 0.0
Ar 10.6606 6.90922 0.0
Ar 0.74403 8.97534 0.0
Ar 9.85005 10.5464 0.0
36
step 620
Ar 0.842969 9.94209 0.0
Ar 3.32204 1.91367 0.0
Ar 2.45543 4.18301 0.0
Ar 0.699073 5.6869 0.0
Ar 0.380165 7.7601 0.0
Ar 11.1635 10.5609 0.0
Ar 4.26035 2.30947 0.0
Ar 5.49667 4.33141 0.0
Ar 3.3565 3.72433 0.0
Ar 11.525 8.48404 0.0
Ar 3.44241 6.44627 0.0
Ar 4.89993 9.00712 0.0
Ar 2.51515 0.980993 0.0
Ar 5.95415 5.8795 0.0
Ar 4.62538 6.07988 0.0
Ar 5.02289 8.03045 0.0
Ar 3.36679 7.67552 0.0
Ar 3.59681 10.3225 0.0
Ar 4.96853 10.5082 0.0
Ar 5.71676 3.24364 0.0
Ar 7.63798 7.59014 0.0
Ar 5.35748 6.98014 0.0
Ar 6.17071 10.6472 0.0
Ar 6.30926 11.623 0.0
Ar 10.2963 0.375639 0.0
Ar 9.22571 2.46451 0.0
Ar 9.35279 4.50346 0.0
Ar 9.94075 9.36505 0.0
Ar 7.04856 9.54093 0.0
Ar 10.4321 1.57877 0.0
Ar 0.449954 1.96484 0.0
Ar 11.0749 2.99588 0.0
Ar 1.63114 5.01276 0.0
Ar 10.651 6.89555 0.0
Ar 0.942233 8.87753 0.0
Ar 9.86873 10.5145 0.0
36
step 640
Ar 0.767814 9.88798 0.0
Ar 3.27175 1.69441 0.0
Ar 2.48292 4.29926 0.0
Ar 0.748885 5.55833 0.0
Ar 0.275305 7.75931 0.0
Ar 11.0975 10.4412 0.0
Ar 4.23073 2.40283 0.0
Ar 5.5141 4.31963 0.0
Ar 3.45627 3.72067 0.0
Ar 11.621 8.56842 0.0
Ar 3.45733 6.37038 0.0
Ar 4.92423 9.08631 0.0
Ar 2.49373 0.964814 0.0
Ar 5.88857 5.85679 0.0
Ar 4.66592 6.07974 0.0
Ar 4.96796 7.9147 0.0
Ar 3.29309 7.58905 0.0
Ar 3.59678 10.2789 0.0
Ar 4.99624 10.5486 0.0
Ar 5.75833 3.32712 0.0
Ar 7.71598 7.74995 0.0
Ar 5.22849 6.94734 0.0
Ar 6.1228 10.6628 0.0
Ar 6.31234 11.814 0.0
Ar 10.3145 0.400888 0.0
Ar 9.19682 2.46353 0.0
Ar 9.55263 4.33443 0.0
Ar 9.8605 9.53853 0.0
Ar 6.88531 9.59988 0.0
Ar 10.3502 1.49023 0.0
Ar 0.496263 1.97313 0.0
Ar 11.0999 3.18954 0.0
Ar 1.68148 5.05392 0.0
Ar 10.6456 6.88587 0.0
Ar 1.11756 8.70768 0.0
Ar 9.91129 10.5198 0.0
36
step 660
Ar 0.690714 9.81328 0.0
Ar 3.27428 1.52422 0.0
Ar 2.51478 4.40486 0.0
Ar 0.751628 5.45446 0.0
Ar 0.230302 7.71781 0.0
Ar 11.0103 10.3141 0.0
Ar 4.19623 2.50292 0.0
Ar 5.50583 4.42234 0.0
Ar 3.58058 3.69731 0.0
Ar 11.6812 8.71576 0.0
Ar 3.49492 6.31251 0.0
Ar 4.94731 9.18211 0.0
Ar 2.42206 0.906874 0.0
Ar 5.78628 5.84982 0.0
Ar 4.63376 5.97218 0.0
Ar 4.86487 7.9505 0.0
Ar 3.2306 7.47935 0.0
Ar 3.61485 10.2357 0.0
Ar 5.01268 10.5749 0.0
Ar 5.82122 3.304 0.0
Ar 7.79322 7.91119 0.0
Ar 5.22262 6.84964 0.0
Ar 6.08279 10.6423 0.0
Ar 6.31548 0.0187578 0.0
Ar 10.3327 0.391732 0.0
Ar 9.17889 2.4578 0.0
Ar 9.75419 4.16134 0.0
Ar 9.78212 9.52408 0.0
Ar 6.70733 9.6755 0.0
Ar 10.2615 1.44342 0.0
Ar 0.540022 1.98286 0.0
Ar 11.122 3.3791 0.0
Ar 1.75763 5.09203 0.0
Ar 10.6442 6.87943 0.0
Ar 1.26119 8.53626 0.0
Ar 9.9796 10.7196 0.0
36
step 680
Ar 0.607122 9.71381 0.0
Ar 3.3523 1.41782 0.0
Ar 2.64593 4.42596 0.0
Ar 0.707805 5.36858 0.0
Ar 0.202271 7.68656 0.0
Ar 10.9204 10.1732 0.0
Ar 4.14214 2.60762 0.0
Ar 5.49672 4.54111 0.0
Ar 3.69617 3.66935 0.0
Ar 11.7512 8.87756 0.0
Ar 3.54877 6.2701 0.0
Ar 4.97031 9.2775 0.0
Ar 2.28838 0.801502 0.0
Ar 5.66252 5.83653 0.0
Ar 4.54307 5.78068 0.0
Ar 4.75853 8.00512 0.0
Ar 3.17964 7.34993 0.0
Ar 3.6519 10.1925 0.0
Ar 4.98088 10.5786 0.0
Ar 5.8797 3.28011 0.0
Ar 7.86983 8.07372 0.0
Ar 5.27125 6.8327 0.0
Ar 6.07705 10.646 0.0
Ar 6.3144 0.204522 0.0
Ar 10.3528 0.316628 0.0
Ar 9.17271 2.44692 0.0
Ar 9.96313 3.98023 0.0
Ar 9.7178 9.51583 0.0
Ar 6.52757 9.74315 0.0
Ar 10.1618 1.46643 0.0
Ar 0.582717 1.99325 0.0
Ar 11.1355 3.5702 0.0
Ar 1.8021 5.18586 0.0
Ar 10.6469 6.87588 0.0
Ar 1.37389 8.36733 0.0
Ar 10.045 10.9273 0.0
36
step 700
Ar 0.544324 9.62254 0.0
Ar 3.42405 1.31635 0.0
Ar 2.80271 4.42954 0.0
Ar 0.655451 5.28517 0.0
Ar 0.179621 7.68465 0.0
Ar 10.8161 10.0232 0.0
Ar 4.08413 2.69316 0.0
Ar 5.48829 4.66705 0.0
Ar 3.79366 3.66427 0.0
Ar 11.8066 9.00804 0.0
Ar 3.59704 6.23811 0.0
Ar 4.99305 9.38188 0.0
Ar 2.16846 0.705251 0.0
Ar 5.54931 5.77012 0.0
Ar 4.4728 5.59269 0.0
Ar 4.65955 8.05748 0.0
Ar 3.13564 7.21578 0.0
Ar 3.71325 10.1497 0.0
Ar 4.91667 10.5532 0.0
Ar 5.92856 3.27523 0.0
Ar 7.94618 8.23754 0.0
Ar 5.28316 6.85418 0.0
Ar 6.03245 10.7721 0.0
Ar 6.31108 0.379849 0.0
Ar 10.3674 0.234433 0.0
Ar 9.18192 2.42808 0.0
Ar 10.1684 3.79128 0.0
Ar 9.67365 9.52986 0.0
Ar 6.39429 9.69436 0.0
Ar 10.0524 1.49389 0.0
Ar 0.625456 2.00363 0.0
Ar 11.1505 3.76316 0.0
Ar 1.85076 5.28347 0.0
Ar 10.6537 6.875 0.0
Ar 1.46114 8.19805 0.0
Ar 10.1183 11.1277 0.0
36
step 720
Ar 0.671404 9.68598 0.0
Ar 3.48536 1.21753 0.0
Ar 2.96287 4.43666 0.0
Ar 0.621873 5.20123 0.0
Ar 0.164182 7.70671 0.0
Ar 10.6959 9.87072 0.0
Ar 4.05654 2.65914 0.0
Ar 5.46746 4.73968 0.0
Ar 3.84361 3.78637 0.0
Ar 11.6673 8.96973 0.0
Ar 3.64427 6.19021 0.0
Ar 5.01856 9.48954 0.0
Ar 2.06255 0.617683 0.0
Ar 5.45951 5.75195 0.0
Ar 4.41721 5.38396 0.0
Ar 4.56952 8.10791 0.0
Ar 3.08087 7.11182 0.0
Ar 3.80643 10.1071 0.0
Ar 4.84306 10.5122 0.0
Ar 5.97005 3.28306 0.0
Ar 8.02257 8.40282 0.0
Ar 5.27212 6.88896 0.0
Ar 5.97114 10.9156 0.0
Ar 6.30613 0.547706 0.0
Ar 10.388 0.224823 0.0
Ar 9.21024 2.39794 0.0
Ar 10.1954 3.59818 0.0
Ar 9.65034 9.55774 0.0
Ar 6.25046 9.62763 0.0
Ar 9.93339 1.51675 0.0
Ar 0.669025 2.01347 0.0
Ar 11.3412 3.95458 0.0
Ar 1.89864 5.36766 0.0
Ar 10.6651 6.87684 0.0
Ar 1.52794 8.02703 0.0
Ar 10.1899 11.2531 0.0
36
step 740
Ar 0.802653 9.7507 0.0
Ar 3.54099 1.12371 0.0
Ar 3.08185 4.4836 0.0
Ar 0.607717 5.11693 0.0
Ar 0.153792 7.74945 0.0
Ar 10.6244 9.72493 0.0
Ar 4.03001 2.60802 0.0
Ar 5.42709 4.67606 0.0
Ar 3.9305 3.90153 0.0
Ar 11.5144 8.9217 0.0
Ar 3.70892 6.11486 0.0
Ar 5.05682 9.51297 0.0
Ar 1.96447 0.535473 0.0
Ar 5.37525 5.87836 0.0
Ar 4.37005 5.15581 0.0
Ar 4.4886 8.15647 0.0
Ar 3.011 7.03723 0.0
Ar 3.89854 10.0455 0.0
Ar 4.79708 10.5695 0.0
Ar 6.00546 3.30046 0.0
Ar 8.09964 8.56981 0.0
Ar 5.24667 6.92686 0.0
Ar 5.89266 11.0338 0.0
Ar 6.29982 0.709433 0.0
Ar 10.4398 0.415734 0.0
Ar 9.24325 2.37864 0.0
Ar 10.1979 3.39782 0.0
Ar 9.59167 9.58028 0.0
Ar 6.08208 9.58116 0.0
Ar 9.82302 1.5183 0.0
Ar 0.713661 2.02239 0.0
Ar 11.5534 4.14703 0.0
Ar 1.93944 5.44033 0.0
Ar 10.6812 6.88175 0.0
Ar 1.57915 7.85357 0.0
Ar 10.2271 11.1799 0.0
36
step 760
Ar 0.923725 9.8066 0.0
Ar 3.59396 1.03641 0.0
Ar 3.12343 4.60586 0.0
Ar 0.600738 5.02712 0.0
Ar 0.144278 7.81006 0.0
Ar 10.6359 9.59496 0.0
Ar 3.99985 2.57204 0.0
Ar 5.37244 4.61487 0.0
Ar 4.11334 3.95243 0.0
Ar 11.3706 8.86889 0.0
Ar 3.78218 6.03039 0.0
Ar 4.95469 9.48768 0.0
Ar 1.87046 0.457025 0.0
Ar 5.27512 5.92934 0.0
Ar 4.32563 4.93136 0.0
Ar 4.4181 8.20492 0.0
Ar 2.94426 6.95698 0.0
Ar 3.94773 9.93652 0.0
Ar 4.82696 10.7055 0.0
Ar 6.03367 3.32891 0.0
Ar 8.17933 8.73944 0.0
Ar 5.20155 7.02704 0.0
Ar 5.79981 11.133 0.0
Ar 6.29237 0.866414 0.0
Ar 10.48 0.61737 0.0
Ar 9.24535 2.43567 0.0
Ar 10.1977 3.18761 0.0
Ar 9.45692 9.59162 0.0
Ar 6.03202 9.55982 0.0
Ar 9.7665 1.43872 0.0
Ar 0.75948 2.03004 0.0
Ar 11.7671 4.34402 0.0
Ar 1.97619 5.50392 0.0
Ar 10.7021 6.89016 0.0
Ar 1.62011 7.67706 0.0
Ar 10.2666 11.1002 0.0
36
step 780
Ar 1.04066 9.85854 0.0
Ar 3.6457 0.955911 0.0
Ar 3.18622 4.74564 0.0
Ar 0.727567 5.032 0.0
Ar 0.129635 7.88617 0.0
Ar 10.5691 9.54223 0.0
Ar 3.96995 2.54871 0.0
Ar 5.32336 4.55128 0.0
Ar 4.27093 3.80403 0.0
Ar 11.308 8.73234 0.0
Ar 3.86059 5.93504 0.0
Ar 4.84029 9.43085 0.0
Ar 1.77844 0.381623 0.0
Ar 5.15258 5.92334 0.0
Ar 4.28107 4.93339 0.0
Ar 4.36131 8.2581 0.0
Ar 2.88313 6.86179 0.0
Ar 3.93243 9.86259 0.0
Ar 4.80408 10.7868 0.0
Ar 6.05226 3.37031 0.0
Ar 8.2675 8.91536 0.0
Ar 5.1403 7.1595 0.0
Ar 5.76192 11.249 0.0
Ar 6.28388 1.02011 0.0
Ar 10.5495 0.780634 0.0
Ar 9.25126 2.51124 0.0
Ar 10.1885 2.96576 0.0
Ar 9.32723 9.60025 0.0
Ar 6.0516 9.55516 0.0
Ar 9.6864 1.38061 0.0
Ar 0.806585 2.03591 0.0
Ar 11.8585 4.44934 0.0
Ar 2.01559 5.56003 0.0
Ar 10.7278 6.90267 0.0
Ar 1.65865 7.49603 0.0
Ar 10.3076 11.0177 0.0
36
step 800
Ar 1.15572 9.90833 0.0
Ar 3.69696 0.881439 0.0
Ar 3.24173 4.89925 0.0
Ar 1.01809 5.1505 0.0
Ar 0.116234 7.96397 0.0
Ar 10.4478 9.53175 0.0
Ar 3.94467 2.54093 0.0
Ar 5.27074 4.47502 0.0
Ar 4.42251 3.57922 0.0
Ar 11.2767 8.55957 0.0
Ar 3.90765 5.9098 0.0
Ar 4.89938 9.30036 0.0
Ar 1.68729 0.308919 0.0
Ar 4.9974 5.90439 0.0
Ar 4.29669 4.96421 0.0
Ar 4.32277 8.31986 0.0
Ar 2.81803 6.75264 0.0
Ar 3.7753 9.87515 0.0
Ar 4.71535 10.8048 0.0
Ar 6.05708 3.42682 0.0
Ar 8.36352 9.09701 0.0
Ar 5.06374 7.28477 0.0
Ar 5.778 11.3861 0.0
Ar 6.27445 1.17135 0.0
Ar 10.672 0.898096 0.0
Ar 9.19028 2.53393 0.0
Ar 10.2535 2.76927 0.0
Ar 9.2171 9.606 0.0
Ar 6.04487 9.55552 0.0
Ar 9.5462 1.39182 0.0
Ar 0.854887 2.03971 0.0
Ar 11.8024 4.44737 0.0
Ar 2.05908 5.61094 0.0
Ar 10.7584 6.92054 0.0
Ar 1.70511 7.30691 0.0
Ar 10.3483 10.9238 0.0
36
step 820
Ar 1.26992 9.95723 0.0
Ar 3.74812 0.811731 0.0
Ar 3.24615 5.07503 0.0
Ar 1.26657 5.24779 0.0
Ar 0.177948 7.98755 0.0
Ar 10.319 9.52243 0.0
Ar 3.92043 2.53433 0.0
Ar 5.25493 4.35438 0.0
Ar 4.59156 3.38743 0.0
Ar 11.1556 8.44936 0.0
Ar 3.83822 6.01029 0.0
Ar 4.96411 9.1886 0.0
Ar 1.59634 0.238394 0.0
Ar 4.87286 5.87476 0.0
Ar 4.3809 4.88983 0.0
Ar 4.29465 8.36942 0.0
Ar 2.74223 6.62351 0.0
Ar 3.64771 9.89069 0.0
Ar 4.62973 10.803 0.0
Ar 6.04079 3.50049 0.0
Ar 8.29746 9.18425 0.0
Ar 4.96987 7.40973 0.0
Ar 5.77992 11.5137 0.0
Ar 6.26414 1.32045 0.0
Ar 10.7783 1.02312 0.0
Ar 9.09506 2.52172 0.0
Ar 10.3564 2.57648 0.0
Ar 9.29314 9.70893 0.0
Ar 6.01714 9.5568 0.0
Ar 9.41916 1.42544 0.0
Ar 0.903909 2.04119 0.0
Ar 11.7586 4.45233 0.0
Ar 2.16132 5.68754 0.0
Ar 10.7946 6.94641 0.0
Ar 1.766 7.10466 0.0
Ar 10.3872 10.811 0.0
36
step 840
Ar 1.38427 10.006 0.0
Ar 3.79971 0.74544 0.0
Ar 3.23161 5.23563 0.0
Ar 1.36423 5.27321 0.0
Ar 0.256017 7.9963 0.0
Ar 10.3149 9.49109 0.0
Ar 3.8852 2.50888 0.0
Ar 5.29773 4.19558 0.0
Ar 4.79257 3.23585 0.0
Ar 11.0026 8.35696 0.0
Ar 3.69541 6.14207 0.0
Ar 5.04078 9.12182 0.0
Ar 1.50533 0.169552 0.0
Ar 4.83028 5.84836 0.0
Ar 4.35461 4.86379 0.0
Ar 4.23719 8.3756 0.0
Ar 2.80429 6.61568 0.0
Ar 3.54857 9.9083 0.0
Ar 4.54883 10.7894 0.0
Ar 6.03116 3.55286 0.0
Ar 8.17958 9.24189 0.0
Ar 4.86661 7.53485 0.0
Ar 5.76576 11.6319 0.0
Ar 6.25293 1.46783 0.0
Ar 10.8667 1.16109 0.0
Ar 9.02271 2.50401 0.0
Ar 10.4338 2.36568 0.0
Ar 9.31683 9.87644 0.0
Ar 5.9952 9.56499 0.0
Ar 9.31342 1.46952 0.0
Ar 0.953224 2.04028 0.0
Ar 11.7198 4.45964 0.0
Ar 2.34178 5.68965 0.0
Ar 10.8368 6.9849 0.0
Ar 1.79162 6.90529 0.0
Ar 10.418 10.6696 0.0
36
step 860
Ar 1.49941 10.0553 0.0
Ar 3.85212 0.681554 0.0
Ar 3.34421 5.22286 0.0
Ar 1.37562 5.26815 0.0
Ar 0.312817 8.00747 0.0
Ar 10.4096 9.43055 0.0
Ar 3.86041 2.48699 0.0
Ar 5.18999 4.19825 0.0
Ar 4.99658 3.07119 0.0
Ar 10.856 8.26017 0.0
Ar 3.78389 6.25973 0.0
Ar 5.07085 9.0451 0.0
Ar 1.41423 0.101853 0.0
Ar 4.78443 5.84094 0.0
Ar 4.30087 4.83154 0.0
Ar 4.11741 8.42683 0.0
Ar 2.88107 6.89663 0.0
Ar 3.47196 9.93143 0.0
Ar 4.46553 10.7639 0.0
Ar 6.15427 3.46033 0.0
Ar 8.0808 9.31041 0.0
Ar 4.80489 7.60266 0.0
Ar 5.74127 11.7444 0.0
Ar 6.24043 1.61475 0.0
Ar 10.9476 1.30351 0.0
Ar 8.95628 2.52195 0.0
Ar 10.4831 2.14529 0.0
Ar 9.25015 10.0693 0.0
Ar 6.02618 9.60116 0.0
Ar 9.23812 1.48348 0.0
Ar 1.00243 2.03701 0.0
Ar 11.6838 4.46814 0.0
Ar 2.32878 5.60592 0.0
Ar 10.8847 7.04377 0.0
Ar 1.75804 6.7054 0.0
Ar 10.4321 10.5022 0.0
36
step 880
Ar 1.61622 10.1054 0.0
Ar 3.90603 0.61901 0.0
Ar 3.40556 5.23268 0.0
Ar 1.25741 5.22664 0.0
Ar 0.354257 8.01762 0.0
Ar 10.497 9.31006 0.0
Ar 3.85629 2.47322 0.0
Ar 5.11686 4.1767 0.0
Ar 5.20189 2.90821 0.0
Ar 10.7133 8.16667 0.0
Ar 3.90988 6.35348 0.0
Ar 5.07258 8.94906 0.0
Ar 1.32299 0.0345631 0.0
Ar 4.78489 5.80512 0.0
Ar 4.33673 4.77293 0.0
Ar 3.96812 8.52555 0.0
Ar 2.86412 7.20966 0.0
Ar 3.41638 9.96107 0.0
Ar 4.37336 10.725 0.0
Ar 6.2571 3.35505 0.0
Ar 7.99564 9.38841 0.0
Ar 4.77273 7.63502 0.0
Ar 5.71018 11.8538 0.0
Ar 6.22531 1.76503 0.0
Ar 11.1528 1.22602 0.0
Ar 8.88975 2.57372 0.0
Ar 10.3804 2.14025 0.0
Ar 9.20703 10.2518 0.0
Ar 6.07174 9.64668 0.0
Ar 9.19178 1.46855 0.0
Ar 1.05109 2.03147 0.0
Ar 11.6504 4.47792 0.0
Ar 2.37427 5.63696 0.0
Ar 10.9367 7.12303 0.0
Ar 1.73497 6.4814 0.0
Ar 10.4243 10.3722 0.0
36
step 900
Ar 1.73615 10.157 0.0
Ar 3.96234 0.556585 0.0
Ar 3.38538 5.31886 0.0
Ar 1.1489 5.20385 0.0
Ar 0.384563 8.02504 0.0
Ar 10.5826 9.13909 0.0
Ar 3.86858 2.46303 0.0
Ar 5.21662 4.00467 0.0
Ar 5.40262 2.75754 0.0
Ar 10.5608 8.12363 0.0
Ar 3.92193 6.49094 0.0
Ar 5.066 8.84271 0.0
Ar 1.23158 11.967 0.0
Ar 4.86797 5.71364 0.0
Ar 4.34115 4.77674 0.0
Ar 3.84221 8.62326 0.0
Ar 2.85056 7.49718 0.0
Ar 3.37972 9.99409 0.0
Ar 4.26933 10.6734 0.0
Ar 6.33999 3.2502 0.0
Ar 7.91846 9.47376 0.0
Ar 4.7259 7.68821 0.0
Ar 5.67426 11.9622 0.0
Ar 6.20194 1.93089 0.0
Ar 11.3784 1.11358 0.0
Ar 8.83443 2.61599 0.0
Ar 10.2309 2.16423 0.0
Ar 9.18448 10.4247 0.0
Ar 6.10024 9.68103 0.0
Ar 9.16217 1.46947 0.0
Ar 1.09861 2.02363 0.0
Ar 11.6208 4.48943 0.0
Ar 2.44305 5.62786 0.0
Ar 11.0073 7.15826 0.0
Ar 1.66913 6.30744 0.0
Ar 10.3909 10.2908 0.0
36
step 920
Ar 1.86205 10.2104 0.0
Ar 4.02235 0.493032 0.0
Ar 3.52664 5.39208 0.0
Ar 1.06318 5.20344 0.0
Ar 0.405204 8.02863 0.0
Ar 10.6714 9.09928 0.0
Ar 3.892 2.45387 0.0
Ar 5.34785 3.7911 0.0
Ar 5.46983 2.66576 0.0
Ar 10.3831 8.01545 0.0
Ar 3.9297 6.61334 0.0
Ar 5.04635 8.7333 0.0
Ar 1.1399 11.8989 0.0
Ar 4.94792 5.65705 0.0
Ar 4.34066 4.74626 0.0
Ar 3.74307 8.71325 0.0
Ar 2.85197 7.77719 0.0
Ar 3.33374 10.0071 0.0
Ar 4.1769 10.6285 0.0
Ar 6.45391 3.16415 0.0
Ar 7.84477 9.56457 0.0
Ar 4.65685 7.7585 0.0
Ar 5.63354 0.070941 0.0
Ar 6.2505 2.05118 0.0
Ar 11.5984 1.00906 0.0
Ar 8.79741 2.63441 0.0
Ar 10.0575 2.17291 0.0
Ar 9.18031 10.5881 0.0
Ar 6.11424 9.70299 0.0
Ar 9.14645 1.50211 0.0
Ar 1.14429 2.01328 0.0
Ar 11.5963 4.50333 0.0
Ar 2.41921 5.58693 0.0
Ar 11.106 7.14403 0.0
Ar 1.50951 6.20533 0.0
Ar 10.3369 10.2003 0.0
36
step 940
Ar 2.00039 10.2646 0.0
Ar 4.08857 0.42711 0.0
Ar 3.65846 5.52707 0.0
Ar 0.975319 5.17644 0.0
Ar 0.41642 8.027 0.0
Ar 10.7608 9.10061 0.0
Ar 3.92639 2.44582 0.0
Ar 5.48909 3.64148 0.0
Ar 5.31841 2.65663 0.0
Ar 10.2069 7.87616 0.0
Ar 3.94481 6.72212 0.0
Ar 5.04332 8.70298 0.0
Ar 1.04725 11.8307 0.0
Ar 5.01276 5.62574 0.0
Ar 4.39883 4.64218 0.0
Ar 3.66152 8.79381 0.0
Ar 2.87506 8.06346 0.0
Ar 3.22903 9.96319 0.0
Ar 4.13865 10.6227 0.0
Ar 6.56716 3.09738 0.0
Ar 7.77098 9.65926 0.0
Ar 4.52974 7.75854 0.0
Ar 5.58614 0.180984 0.0
Ar 6.48362 2.01712 0.0
Ar 11.8209 0.906336 0.0
Ar 8.78413 2.62773 0.0
Ar 9.88082 2.19798 0.0
Ar 9.19465 10.7395 0.0
Ar 6.12053 9.71529 0.0
Ar 9.11221 1.54184 0.0
Ar 1.18732 1.99994 0.0
Ar 11.5784 4.5204 0.0
Ar 2.37254 5.53956 0.0
Ar 11.2092 7.13691 0.0
Ar 1.34591 6.14627 0.0
Ar 10.2637 10.1051 0.0
36
step 960
Ar 2.15524 10.3169 0.0
Ar 4.16579 0.357662 0.0
Ar 3.79169 5.6851 0.0
Ar 0.861979 5.07195 0.0
Ar 0.41661 8.01826 0.0
Ar 10.8433 9.08406 0.0
Ar 3.97912 2.44022 0.0
Ar 5.65947 3.66859 0.0
Ar 5.16026 2.46606 0.0
Ar 10.0568 7.74214 0.0
Ar 3.95889 6.80501 0.0
Ar 5.05238 8.73091 0.0
Ar 0.950743 11.766 0.0
Ar 5.04472 5.58935 0.0
Ar 4.47399 4.54128 0.0
Ar 3.66233 8.93191 0.0
Ar 2.8477 8.29617 0.0
Ar 3.10931 9.89446 0.0
Ar 4.10756 10.622 0.0
Ar 6.64554 3.06143 0.0
Ar 7.69383 9.75651 0.0
Ar 4.3604 7.72555 0.0
Ar 5.52761 0.293368 0.0
Ar 6.70136 1.96299 0.0
Ar 0.0519657 0.801689 0.0
Ar 8.78165 2.61043 0.0
Ar 9.79156 2.30942 0.0
Ar 9.22689 10.8759 0.0
Ar 6.12295 9.71908 0.0
Ar 8.97897 1.50545 0.0
Ar 1.22681 1.98275 0.0
Ar 11.5701 4.54208 0.0
Ar 2.31984 5.49871 0.0
Ar 11.3044 7.15119 0.0
Ar 1.22736 6.15585 0.0
Ar 10.1708 10.0196 0.0
36
step 980
Ar 2.22289 10.4165 0.0
Ar 4.26169 0.284831 0.0
Ar 3.94477 5.79691 0.0
Ar 0.742819 4.96381 0.0
Ar 0.402333 7.99941 0.0
Ar 10.9157 9.06578 0.0
Ar 4.03165 2.43734 0.0
Ar 5.82387 3.68599 0.0
Ar 5.02426 2.28357 0.0
Ar 9.9282 7.60963 0.0
Ar 3.92231 6.78594 0.0
Ar 5.04061 8.75504 0.0
Ar 0.844867 11.7134 0.0
Ar 5.03997 5.54087 0.0
Ar 4.55822 4.46709 0.0
Ar 3.79934 9.10868 0.0
Ar 2.73972 8.45844 0.0
Ar 3.07624 9.80659 0.0
Ar 4.05747 10.6068 0.0
Ar 6.70665 3.04329 0.0
Ar 7.61022 9.85508 0.0
Ar 4.24031 7.85121 0.0
Ar 5.45046 0.407937 0.0
Ar 6.91136 1.8969 0.0
Ar 0.298467 0.687983 0.0
Ar 8.71568 2.60817 0.0
Ar 9.77352 2.41189 0.0
Ar 9.27458 10.9948 0.0
Ar 6.12336 9.7143 0.0
Ar 8.83537 1.46301 0.0
Ar 1.26192 1.96034 0.0
Ar 11.5781 4.57062 0.0
Ar 2.25107 5.46874 0.0
Ar 11.397 7.18474 0.0
Ar 1.12709 6.1553 0.0
Ar 10.0679 9.93904 0.0
36
step 1000
Ar 2.2085 10.5692 0.0
Ar 4.36893 0.208738 0.0
Ar 4.07764 5.73323 0.0
Ar 0.622287 4.87438 0.0
Ar 0.369566 7.96715 0.0
Ar 10.9731 9.05573 0.0
Ar 3.95194 2.45727 0.0
Ar 5.95733 3.71438 0.0
Ar 5.03162 2.08416 0.0
Ar 9.81239 7.47844 0.0
Ar 3.87405 6.90205 0.0
Ar 5.00523 8.77776 0.0
Ar 0.753764 11.6211 0.0
Ar 5.04793 5.47238 0.0
Ar 4.65376 4.41405 0.0
Ar 4.04682 9.16692 0.0
Ar 2.65697 8.64233 0.0
Ar 3.04426 9.76054 0.0
Ar 3.98672 10.5704 0.0
Ar 6.78472 2.99766 0.0
Ar 7.5166 9.95347 0.0
Ar 4.13268 8.04589 0.0
Ar 5.36131 0.525683 0.0
Ar 7.11884 1.84572 0.0
Ar 0.537117 0.619238 0.0
Ar 8.60327 2.60348 0.0
Ar 9.78539 2.49057 0.0
Ar 9.33366 11.096 0.0
Ar 6.12387 9.70156 0.0
Ar 8.7023 1.44652 0.0
Ar 1.29209 1.93079 0.0
Ar 11.6031 4.60554 0.0
Ar 2.16219 5.44905 0.0
Ar 11.4973 7.23627 0.0
Ar 1.03544 6.12366 0.0
Ar 9.96734 9.85865 0.0
36
step 1020
Ar 2.20219 10.7146 0.0
Ar 4.4037 0.103073 0.0
Ar 4.07828 5.68874 0.0
Ar 0.591646 4.82664 0.0
Ar 0.345206 7.94478 0.0
Ar 11.0155 9.0531 0.0
Ar 3.85319 2.48092 0.0
Ar 6.06353 3.758 0.0
Ar 5.06522 1.87455 0.0
Ar 9.70335 7.34868 0.0
Ar 3.83168 7.03871 0.0
Ar 5.0966 8.74526 0.0
Ar 0.696932 11.4177 0.0
Ar 5.18866 5.36643 0.0
Ar 4.75508 4.36803 0.0
Ar 4.16151 9.29705 0.0
Ar 2.5936 8.83043 0.0
Ar 3.02286 9.74043 0.0
Ar 3.89743 10.5057 0.0
Ar 6.88404 2.91836 0.0
Ar 7.40874 10.0495 0.0
Ar 4.01856 8.22667 0.0
Ar 5.34207 0.679641 0.0
Ar 7.33129 1.81676 0.0
Ar 0.750567 0.67008 0.0
Ar 8.49947 2.58072 0.0
Ar 9.77247 2.56229 0.0
Ar 9.39963 11.1818 0.0
Ar 6.12737 9.68259 0.0
Ar 8.56865 1.45435 0.0
Ar 1.3164 1.89065 0.0
Ar 11.5523 4.62306 0.0
Ar 2.05106 5.43906 0.0
Ar 11.583 7.28053 0.0
Ar 0.952067 6.06239 0.0
Ar 9.87605 9.77871 0.0
36
step 1040
Ar 2.21116 10.8422 0.0
Ar 4.40869 11.9823 0.0
Ar 4.07187 5.65317 0.0
Ar 0.648046 4.82002 0.0
Ar 0.413312 8.00662 0.0
Ar 11.0453 9.05442 0.0
Ar 3.77246 2.49677 0.0
Ar 6.16531 3.79775 0.0
Ar 5.07198 1.70936 0.0
Ar 9.59795 7.22016 0.0
Ar 3.79661 7.18042 0.0
Ar 5.26634 8.67636 0.0
Ar 0.647345 11.2242 0.0
Ar 5.34758 5.27805 0.0
Ar 4.85371 4.30396 0.0
Ar 4.16862 9.51113 0.0
Ar 2.48679 8.89616 0.0
Ar 3.0574 9.83958 0.0
Ar 3.81722 10.4468 0.0
Ar 6.98685 2.8284 0.0
Ar 7.28211 10.1402 0.0
Ar 3.90356 8.37073 0.0
Ar 5.3634 0.80994 0.0
Ar 7.54922 1.81708 0.0
Ar 0.970594 0.72592 0.0
Ar 8.39854 2.54935 0.0
Ar 9.73114 2.62956 0.0
Ar 9.46892 11.256 0.0
Ar 6.13574 9.65759 0.0
Ar 8.43831 1.46684 0.0
Ar 1.33268 1.83269 0.0
Ar 11.4303 4.62605 0.0
Ar 1.91344 5.43754 0.0
Ar 11.5723 7.24272 0.0
Ar 0.878445 5.97053 0.0
Ar 9.79679 9.69948 0.0
36
step 1060
Ar 2.23354 10.9517 0.0
Ar 4.42866 11.8708 0.0
Ar 4.08677 5.61339 0.0
Ar 0.703898 4.82724 0.0
Ar 0.48993 8.08025 0.0
Ar 11.0646 9.05728 0.0
Ar 3.70318 2.50716 0.0
Ar 6.26396 3.82984 0.0
Ar 4.97703 1.83922 0.0
Ar 9.49497 7.09245 0.0
Ar 3.76574 7.336 0.0
Ar 5.41872 8.62984 0.0
Ar 0.606927 11.0396 0.0
Ar 5.4989 5.20979 0.0
Ar 4.95296 4.22189 0.0
Ar 4.21633 9.57303 0.0
Ar 2.37329 8.92237 0.0
Ar 2.95829 9.8536 0.0
Ar 3.84593 10.658 0.0
Ar 7.08131 2.76706 0.0
Ar 7.13454 10.2219 0.0
Ar 3.79276 8.51946 0.0
Ar 5.45933 0.636166 0.0
Ar 7.50617 1.89421 0.0
Ar 1.19059 0.76911 0.0
Ar 8.31705 2.55188 0.0
Ar 9.66504 2.69213 0.0
Ar 9.53949 11.3224 0.0
Ar 6.14842 9.62524 0.0
Ar 8.56606 1.36143 0.0
Ar 1.3475 1.77599 0.0
Ar 11.3275 4.63318 0.0
Ar 1.75543 5.4327 0.0
Ar 11.55 7.19531 0.0
Ar 0.804861 5.86787 0.0
Ar 9.73031 9.62041 0.0
36
step 1080
Ar 2.26799 11.0419 0.0
Ar 4.46061 11.7603 0.0
Ar 4.1166 5.56863 0.0
Ar 0.752954 4.76964 0.0
Ar 0.548234 8.14145 0.0
Ar 11.0755 9.06066 0.0
Ar 3.64739 2.51154 0.0
Ar 6.35409 3.85673 0.0
Ar 4.86922 1.9786 0.0
Ar 9.3936 6.96497 0.0
Ar 3.73651 7.50935 0.0
Ar 5.56808 8.60714 0.0
Ar 0.574441 10.8581 0.0
Ar 5.64076 5.13615 0.0
Ar 5.0667 4.14023 0.0
Ar 4.25928 9.60301 0.0
Ar 2.26703 8.93545 0.0
Ar 2.86858 9.87653 0.0
Ar 3.87585 10.9144 0.0
Ar 7.09317 2.90751 0.0
Ar 6.9774 10.2985 0.0
Ar 3.67351 8.66659 0.0
Ar 5.53722 0.445773 0.0
Ar 7.46332 1.7539 0.0
Ar 1.39466 0.699956 0.0
Ar 8.28975 2.58965 0.0
Ar 9.57554 2.74872 0.0
Ar 9.61032 11.3844 0.0
Ar 6.15438 9.57938 0.0
Ar 8.73078 1.25882 0.0
Ar 1.37816 1.82693 0.0
Ar 11.2438 4.64425 0.0
Ar 1.6488 5.38882 0.0
Ar 11.5438 7.16248 0.0
Ar 0.665686 5.86859 0.0
Ar 9.67621 9.54096 0.0
36
step 1100
Ar 2.31459 11.1128 0.0
Ar 4.60234 11.776 0.0
Ar 4.15673 5.5193 0.0
Ar 0.76929 4.66759 0.0
Ar 0.593029 8.1938 0.0
Ar 11.0794 9.06406 0.0
Ar 3.61056 2.50845 0.0
Ar 6.42696 3.88601 0.0
Ar 4.74611 2.12042 0.0
Ar 9.29332 6.83759 0.0
Ar 3.70711 7.69757 0.0
Ar 5.70781 8.58494 0.0
Ar 0.547792 10.6781 0.0
Ar 5.77558 5.04361 0.0
Ar 5.20369 4.06551 0.0
Ar 4.29146 9.65661 0.0
Ar 2.17385 8.94277 0.0
Ar 2.80468 9.91792 0.0
Ar 3.80183 11.0273 0.0
Ar 7.11196 3.06446 0.0
Ar 6.83223 10.3862 0.0
Ar 3.53109 8.8081 0.0
Ar 5.59314 0.249393 0.0
Ar 7.44988 1.60369 0.0
Ar 1.59669 0.606496 0.0
Ar 8.26035 2.61362 0.0
Ar 9.46046 2.79786 0.0
Ar 9.68067 11.4445 0.0
Ar 6.14613 9.52555 0.0
Ar 8.87537 1.18286 0.0
Ar 1.41209 1.89807 0.0
Ar 11.1735 4.65813 0.0
Ar 1.59298 5.34629 0.0
Ar 11.5516 7.13924 0.0
Ar 0.491883 5.91446 0.0
Ar 9.63387 9.46061 0.0
36
step 1120
Ar 2.37712 11.1658 0.0
Ar 4.72909 11.8326 0.0
Ar 4.20436 5.46616 0.0
Ar 0.738145 4.55759 0.0
Ar 0.629127 8.24098 0.0
Ar 11.0772 9.06719 0.0
Ar 3.58733 2.50062 0.0
Ar 6.44277 3.96641 0.0
Ar 4.61084 2.26735 0.0
Ar 9.19378 6.7103 0.0
Ar 3.67734 7.89089 0.0
Ar 5.80872 8.49064 0.0
Ar 0.5252 10.4982 0.0
Ar 5.91323 4.93199 0.0
Ar 5.36073 3.99082 0.0
Ar 4.30722 9.71713 0.0
Ar 2.1054 8.95894 0.0
Ar 2.75466 9.95799 0.0
Ar 3.65526 11.0519 0.0
Ar 7.18213 3.16971 0.0
Ar 6.697 10.4874 0.0
Ar 3.36518 8.97207 0.0
Ar 5.71999 0.0787042 0.0
Ar 7.45921 1.47944 0.0
Ar 1.79824 0.526825 0.0
Ar 8.21921 2.62377 0.0
Ar 9.32137 2.83885 0.0
Ar 9.74994 11.5049 0.0
Ar 6.15803 9.53358 0.0
Ar 9.00702 1.12183 0.0
Ar 1.44956 1.94881 0.0
Ar 11.1138 4.67452 0.0
Ar 1.55353 5.34138 0.0
Ar 11.5729 7.11869 0.0
Ar 0.3326 5.93687 0.0
Ar 9.6028 9.37912 0.0
36
step 1140
Ar 2.4589 11.2043 0.0
Ar 4.70091 11.8334 0.0
Ar 4.25742 5.4099 0.0
Ar 0.695658 4.46294 0.0
Ar 0.660497 8.28604 0.0
Ar 11.0692 9.07009 0.0
Ar 3.48841 2.50753 0.0
Ar 6.51783 4.0103 0.0
Ar 4.55233 2.40168 0.0
Ar 9.0947 6.5831 0.0
Ar 3.64585 8.09101 0.0
Ar 5.89674 8.37302 0.0
Ar 0.50506 10.3166 0.0
Ar 6.02277 4.89946 0.0
Ar 5.45995 3.89666 0.0
Ar 4.29549 9.77434 0.0
Ar 2.06681 8.99025 0.0
Ar 2.70207 10.0189 0.0
Ar 3.50214 11.0661 0.0
Ar 7.28612 3.2405 0.0
Ar 6.5673 10.6055 0.0
Ar 3.19756 9.14257 0.0
Ar 5.98679 11.9481 0.0
Ar 7.48587 1.37378 0.0
Ar 2.0018 0.447795 0.0
Ar 8.15372 2.61849 0.0
Ar 9.18408 2.87644 0.0
Ar 9.81744 11.5678 0.0
Ar 6.16907 9.55295 0.0
Ar 9.13049 1.06838 0.0
Ar 1.49104 1.98661 0.0
Ar 11.0644 4.69395 0.0
Ar 1.49694 5.34446 0.0
Ar 11.6088 7.09271 0.0
Ar 0.18298 5.94784 0.0
Ar 9.58288 9.29648 0.0
36
step 1160
Ar 2.43088 11.2593 0.0
Ar 4.67404 11.8246 0.0
Ar 4.31514 5.35092 0.0
Ar 0.657225 4.39264 0.0
Ar 0.690367 8.33183 0.0
Ar 11.056 9.07313 0.0
Ar 3.32985 2.52286 0.0
Ar 6.67279 3.97864 0.0
Ar 4.5548 2.53134 0.0
Ar 8.99569 6.45591 0.0
Ar 3.61322 8.29819 0.0
Ar 5.98774 8.27666 0.0
Ar 0.486306 10.131 0.0
Ar 6.05583 4.99293 0.0
Ar 5.49923 3.79947 0.0
Ar 4.25241 9.82737 0.0
Ar 2.04079 9.03794 0.0
Ar 2.58834 10.2083 0.0
Ar 3.4604 11.0449 0.0
Ar 7.39661 3.29598 0.0
Ar 6.43156 10.7345 0.0
Ar 3.10932 9.21063 0.0
Ar 6.24483 11.8046 0.0
Ar 7.52539 1.28375 0.0
Ar 2.21116 0.355494 0.0
Ar 8.07761 2.54609 0.0
Ar 9.09356 2.92338 0.0
Ar 9.8821 11.636 0.0
Ar 6.17271 9.55451 0.0
Ar 9.24917 1.01643 0.0
Ar 1.5363 2.01771 0.0
Ar 11.0254 4.71727 0.0
Ar 1.41379 5.33865 0.0
Ar 11.6595 7.05403 0.0
Ar 0.0356827 5.96027 0.0
Ar 9.57437 9.21285 0.0
36
step 1180
Ar 2.28478 11.3383 0.0
Ar 4.64457 11.8055 0.0
Ar 4.3781 5.28943 0.0
Ar 0.624826 4.34666 0.0
Ar 0.721495 8.38232 0.0
Ar 11.0376 9.07691 0.0
Ar 3.18694 2.53742 0.0
Ar 6.67004 4.08283 0.0
Ar 4.54379 2.6674 0.0
Ar 8.89668 6.32871 0.0
Ar 3.62045 8.44156 0.0
Ar 6.08102 8.20333 0.0
Ar 0.468903 9.93822 0.0
Ar 6.08294 5.05739 0.0
Ar 5.55875 3.71833 0.0
Ar 4.17629 9.87836 0.0
Ar 1.98821 9.09672 0.0
Ar 2.48489 10.3478 0.0
Ar 3.52632 10.9841 0.0
Ar 7.54755 3.32899 0.0
Ar 6.28945 10.7358 0.0
Ar 3.0412 9.34975 0.0
Ar 6.49482 11.7693 0.0
Ar 7.57598 1.21066 0.0
Ar 2.42265 0.321563 0.0
Ar 8.06283 2.33713 0.0
Ar 9.02783 2.97838 0.0
Ar 9.94211 11.7139 0.0
Ar 6.17522 9.55521 0.0
Ar 9.36627 0.959554 0.0
Ar 1.58594 2.04599 0.0
Ar 10.9979 4.74612 0.0
Ar 1.3056 5.31986 0.0
Ar 11.7175 7.01416 0.0
Ar 11.8924 5.96383 0.0
Ar 9.57802 9.12848 0.0
36
step 1200
Ar 2.10892 11.3798 0.0
Ar 4.60448 11.7731 0.0
Ar 4.44727 5.22558 0.0
Ar 0.59635 4.32159 0.0
Ar 0.75677 8.44573 0.0
Ar 11.0145 9.08191 0.0
Ar 3.05673 2.55123 0.0
Ar 6.64649 4.18728 0.0
Ar 4.52336 2.81129 0.0
Ar 8.79767 6.20152 0.0
Ar 3.65355 8.55361 0.0
Ar 6.17522 8.14956 0.0
Ar 0.4542 9.73164 0.0
Ar 6.10155 5.10591 0.0
Ar 5.63129 3.64806 0.0
Ar 4.06314 9.93101 0.0
Ar 1.90483 9.16381 0.0
Ar 2.41943 10.3367 0.0
Ar 3.57485 10.9061 0.0
Ar 7.69252 3.37798 0.0
Ar 6.13615 10.5941 0.0
Ar 3.00504 9.54113 0.0
Ar 6.75065 11.8695 0.0
Ar 7.63428 1.14992 0.0
Ar 2.65241 0.471645 0.0
Ar 8.06991 2.09686 0.0
Ar 8.94246 3.02687 0.0
Ar 9.99439 11.8084 0.0
Ar 6.17667 9.5485 0.0
Ar 9.48547 0.889959 0.0
Ar 1.64248 2.07406 0.0
Ar 10.9837 4.78348 0.0
Ar 1.1764 5.28941 0.0
Ar 11.7727 7.02074 0.0
Ar 11.7589 5.90838 0.0
Ar 9.59517 9.04368 0.0
36
step 1220
Ar 1.93616 11.4682 0.0
Ar 4.55002 11.7246 0.0
Ar 4.52443 5.15909 0.0
Ar 0.560916 4.30076 0.0
Ar 0.799334 8.53271 0.0
Ar 10.9866 9.08795 0.0
Ar 2.92665 2.56185 0.0
Ar 6.64927 4.23723 0.0
Ar 4.50468 2.96385 0.0
Ar 8.69866 6.07433 0.0
Ar 3.68025 8.69342 0.0
Ar 6.26942 8.11352 0.0
Ar 0.446237 9.50326 0.0
Ar 6.08958 5.18072 0.0
Ar 5.70452 3.58446 0.0
Ar 3.98799 9.933 0.0
Ar 1.82009 9.249 0.0
Ar 2.27552 10.4071 0.0
Ar 3.57952 10.8738 0.0
Ar 7.84204 3.41611 0.0
Ar 5.98154 10.5351 0.0
Ar 3.05223 9.57832 0.0
Ar 7.00507 11.9649 0.0
Ar 7.65236 1.00122 0.0
Ar 2.87889 0.616703 0.0
Ar 8.12654 1.9703 0.0
Ar 8.82432 3.062 0.0
Ar 10.044 11.9088 0.0
Ar 6.18155 9.4562 0.0
Ar 9.60208 0.81766 0.0
Ar 1.71192 2.10429 0.0
Ar 10.9867 4.83529 0.0
Ar 1.03661 5.26371 0.0
Ar 11.829 7.04252 0.0
Ar 11.6272 5.81872 0.0
Ar 9.62799 8.95934 0.0
36
step 1240
Ar 1.77481 11.5671 0.0
Ar 4.47794 11.6582 0.0
Ar 4.61258 5.08989 0.0
Ar 0.502005 4.2524 0.0
Ar 0.920149 8.4836 0.0
Ar 10.9531 9.09354 0.0
Ar 2.78546 2.5652 0.0
Ar 6.66427 4.2547 0.0
Ar 4.49655 3.12473 0.0
Ar 8.59965 5.94713 0.0
Ar 3.72807 8.83195 0.0
Ar 6.36217 8.09794 0.0
Ar 0.381978 9.41729 0.0
Ar 6.0567 5.26592 0.0
Ar 5.7717 3.52675 0.0
Ar 4.08839 9.86708 0.0
Ar 1.73517 9.35255 0.0
Ar 2.12692 10.4762 0.0
Ar 3.52766 10.9415 0.0
Ar 7.86133 3.49823 0.0
Ar 5.82243 10.5111 0.0
Ar 2.94329 9.57628 0.0
Ar 7.23126 0.00989244 0.0
Ar 7.6737 0.848105 0.0
Ar 3.09916 0.751173 0.0
Ar 8.21956 1.92486 0.0
Ar 8.81283 3.02881 0.0
Ar 10.1541 11.8856 0.0
Ar 6.19008 9.31429 0.0
Ar 9.65352 0.871561 0.0
Ar 1.80085 2.13961 0.0
Ar 10.9962 4.88359 0.0
Ar 0.900334 5.2752 0.0
Ar 11.8841 7.04614 0.0
Ar 11.5123 5.74509 0.0
Ar 9.67959 8.87682 0.0
36
step 1260
Ar 1.62301 11.6567 0.0
Ar 4.39152 11.578 0.0
Ar 4.7165 5.01823 0.0
Ar 0.427582 4.19247 0.0
Ar 1.1023 8.34368 0.0
Ar 10.9122 9.09712 0.0
Ar 2.72884 2.60417 0.0
Ar 6.67354 4.26976 0.0
Ar 4.50466 3.29288 0.0
Ar 8.50055 5.81976 0.0
Ar 3.7809 8.91414 0.0
Ar 6.45203 8.10333 0.0
Ar 0.275784 9.43259 0.0
Ar 6.01808 5.3306 0.0
Ar 5.83027 3.47709 0.0
Ar 4.20357 9.8539 0.0
Ar 1.64703 9.46424 0.0
Ar 1.99653 10.5223 0.0
Ar 3.47508 10.9961 0.0
Ar 7.76409 3.62651 0.0
Ar 5.66382 10.4698 0.0
Ar 2.77624 9.61899 0.0
Ar 7.30603 11.7757 0.0
Ar 7.85265 0.983334 0.0
Ar 3.31777 0.881673 0.0
Ar 8.32053 1.89524 0.0
Ar 8.89269 2.92922 0.0
Ar 10.2849 11.8206 0.0
Ar 6.19409 9.17193 0.0
Ar 9.67866 0.970285 0.0
Ar 1.81096 2.13593 0.0
Ar 10.9431 4.81044 0.0
Ar 0.755657 5.30908 0.0
Ar 11.9364 7.03271 0.0
Ar 11.4891 5.80328 0.0
Ar 9.75333 8.79813 0.0
36
step 1280
Ar 1.48122 11.7256 0.0
Ar 4.33184 11.509 0.0
Ar 4.84208 4.9439 0.0
Ar 0.348467 4.1511 0.0
Ar 1.28213 8.23659 0.0
Ar 10.8703 9.09941 0.0
Ar 2.79323 2.69807 0.0
Ar 6.67709 4.28461 0.0
Ar 4.53161 3.46813 0.0
Ar 8.40074 5.69139 0.0
Ar 3.77907 8.9206 0.0
Ar 6.54921 8.08532 0.0
Ar 0.183801 9.43104 0.0
Ar 5.97236 5.36705 0.0
Ar 5.88035 3.43977 0.0
Ar 4.34206 9.9517 0.0
Ar 1.53593 9.55104 0.0
Ar 1.88403 10.5791 0.0
Ar 3.39135 11.008 0.0
Ar 7.66206 3.75374 0.0
Ar 5.49842 10.4134 0.0
Ar 2.62192 9.67711 0.0
Ar 7.38082 11.5444 0.0
Ar 7.98212 1.01428 0.0
Ar 3.53624 1.00901 0.0
Ar 8.48006 1.9702 0.0
Ar 8.95572 2.83346 0.0
Ar 10.4061 11.7738 0.0
Ar 6.18275 9.06925 0.0
Ar 9.70399 1.05588 0.0
Ar 1.7049 2.07382 0.0
Ar 10.8873 4.71398 0.0
Ar 0.585791 5.33822 0.0
Ar 11.9848 7.00034 0.0
Ar 11.5052 5.89387 0.0
Ar 9.84493 8.72381 0.0
36
step 1300
Ar 1.34932 11.7716 0.0
Ar 4.31648 11.452 0.0
Ar 4.98541 4.86011 0.0
Ar 0.264429 4.13682 0.0
Ar 1.45948 8.15438 0.0
Ar 10.8707 9.11556 0.0
Ar 2.84734 2.78203 0.0
Ar 6.64187 4.31532 0.0
Ar 4.57955 3.6542 0.0
Ar 8.29927 5.56101 0.0
Ar 3.76599 8.94416 0.0
Ar 6.66764 8.0074 0.0
Ar 0.0987505 9.42091 0.0
Ar 5.92326 5.3755 0.0
Ar 5.9229 3.41969 0.0
Ar 4.44761 10.0591 0.0
Ar 1.37941 9.59435 0.0
Ar 1.7896 10.6669 0.0
Ar 3.26221 10.975 0.0
Ar 7.57858 3.86851 0.0
Ar 5.3469 10.3572 0.0
Ar 2.49579 9.74917 0.0
Ar 7.45822 11.3208 0.0
Ar 8.08056 0.974326 0.0
Ar 3.75443 1.13318 0.0
Ar 8.58125 1.92362 0.0
Ar 9.11087 2.92062 0.0
Ar 10.5207 11.7391 0.0
Ar 6.14299 9.03747 0.0
Ar 9.72145 1.13773 0.0
Ar 1.61347 2.01891 0.0
Ar 10.8526 4.6331 0.0
Ar 0.391719 5.35521 0.0
Ar 0.0294713 6.94968 0.0
Ar 11.5358 5.97544 0.0
Ar 9.91409 8.64 0.0
36
step 1320
Ar 1.22663 11.7974 0.0
Ar 4.30013 11.371 0.0
Ar 5.09253 4.73342 0.0
Ar 0.170965 4.15132 0.0
Ar 1.63357 8.0891 0.0
Ar 10.9307 9.1546 0.0
Ar 2.89251 2.85708 0.0
Ar 6.51175 4.39274 0.0
Ar 4.64892 3.84893 0.0
Ar 8.19478 5.42661 0.0
Ar 3.75508 8.99575 0.0
Ar 6.78284 7.93399 0.0
Ar 0.0178805 9.40655 0.0
Ar 5.92819 5.38672 0.0
Ar 5.95565 3.41888 0.0
Ar 4.25983 10.0805 0.0
Ar 1.20618 9.6296 0.0
Ar 1.70343 10.756 0.0
Ar 3.13173 10.9224 0.0
Ar 7.56538 3.94879 0.0
Ar 5.46183 10.3891 0.0
Ar 2.37754 9.83722 0.0
Ar 7.53651 11.1009 0.0
Ar 8.16571 0.896558 0.0
Ar 3.97182 1.25527 0.0
Ar 8.68807 1.85361 0.0
Ar 9.29059 3.05638 0.0
Ar 10.6314 11.711 0.0
Ar 6.09931 9.01087 0.0
Ar 9.72076 1.22468 0.0
Ar 1.53475 1.97056 0.0
Ar 10.8391 4.56083 0.0
Ar 0.242214 5.31003 0.0
Ar 0.092634 6.92142 0.0
Ar 11.4933 6.06173 0.0
Ar 9.9458 8.53845 0.0
36
step 1340
Ar 1.10953 11.8129 0.0
Ar 4.2686 11.2545 0.0
Ar 5.26431 4.7502 0.0
Ar 0.0607712 4.17849 0.0
Ar 1.80436 8.03375 0.0
Ar 10.9648 9.18405 0.0
Ar 2.93424 2.92701 0.0
Ar 6.36411 4.47395 0.0
Ar 4.62577 3.83541 0.0
Ar 8.08457 5.28356 0.0
Ar 3.74553 9.06875 0.0
Ar 6.886 7.87962 0.0
Ar 11.9775 9.39901 0.0
Ar 5.99985 5.44479 0.0
Ar 5.97208 3.43464 0.0
Ar 4.03365 10.1119 0.0
Ar 1.04308 9.67894 0.0
Ar 1.62147 10.8289 0.0
Ar 3.00901 10.8483 0.0
Ar 7.55351 4.03286 0.0
Ar 5.58965 10.4241 0.0
Ar 2.25559 9.93883 0.0
Ar 7.61471 10.8832 0.0
Ar 8.24651 0.796726 0.0
Ar 4.18815 1.37658 0.0
Ar 8.82359 1.81759 0.0
Ar 9.46087 3.1736 0.0
Ar 10.7401 11.6867 0.0
Ar 6.06157 8.97557 0.0
Ar 9.70509 1.31442 0.0
Ar 1.46236 1.9253 0.0
Ar 10.8516 4.4931 0.0
Ar 0.132899 5.21728 0.0
Ar 0.195084 6.94341 0.0
Ar 11.3631 6.1292 0.0
Ar 9.98645 8.44293 0.0
36
step 1360
Ar 0.98955 11.8345 0.0
Ar 4.22497 11.1221 0.0
Ar 5.35235 4.76291 0.0
Ar 11.9253 4.13178 0.0
Ar 1.97259 7.98353 0.0
Ar 10.8981 9.18202 0.0
Ar 2.97594 2.99435 0.0
Ar 6.31119 4.47881 0.0
Ar 4.5747 3.74011 0.0
Ar 7.96378 5.12339 0.0
Ar 3.72526 9.11814 0.0
Ar 6.9781 7.83999 0.0
Ar 11.9888 9.39812 0.0
Ar 6.13818 5.64922 0.0
Ar 5.96852 3.4589 0.0
Ar 3.80214 10.1898 0.0
Ar 0.947587 9.76247 0.0
Ar 1.53558 10.8934 0.0
Ar 2.89734 10.7573 0.0
Ar 7.52161 4.13933 0.0
Ar 5.70457 10.4519 0.0
Ar 2.13895 10.0217 0.0
Ar 7.69183 10.6665 0.0
Ar 8.34282 0.711592 0.0
Ar 4.40343 1.49836 0.0
Ar 8.83679 1.84689 0.0
Ar 9.62689 3.27968 0.0
Ar 10.848 11.6644 0.0
Ar 6.03063 8.9361 0.0
Ar 9.80176 1.33399 0.0
Ar 1.39316 1.88121 0.0
Ar 10.8942 4.42994 0.0
Ar 0.00800019 5.21572 0.0
Ar 0.2934 6.95823 0.0
Ar 11.2477 6.18189 0.0
Ar 10.0463 8.36181 0.0
36
step 1380
Ar 0.85692 11.8769 0.0
Ar 4.21725 11.0774 0.0
Ar 5.27249 4.7875 0.0
Ar 11.8494 4.02584 0.0
Ar 2.13929 7.93624 0.0
Ar 10.8035 9.16524 0.0
Ar 3.02059 3.06108 0.0
Ar 6.44641 4.46732 0.0
Ar 4.55102 3.65831 0.0
Ar 7.88506 5.06363 0.0
Ar 3.6971 9.12576 0.0
Ar 7.06077 7.81053 0.0
Ar 11.9227 9.36606 0.0
Ar 6.28278 5.8513 0.0
Ar 5.93774 3.47103 0.0
Ar 3.59674 10.172 0.0
Ar 0.973973 9.90478 0.0
Ar 1.43947 10.9575 0.0
Ar 2.75492 10.7583 0.0
Ar 7.41806 4.14804 0.0
Ar 5.8137 10.4729 0.0
Ar 2.00083 10.0117 0.0
Ar 7.76713 10.4503 0.0
Ar 8.45575 0.650138 0.0
Ar 4.61787 1.62166 0.0
Ar 8.79087 1.89023 0.0
Ar 9.79321 3.38181 0.0
Ar 10.956 11.6435 0.0
Ar 6.00644 8.89567 0.0
Ar 9.94477 1.32131 0.0
Ar 1.32561 1.83711 0.0
Ar 10.8853 4.39864 0.0
Ar 11.8572 5.2652 0.0
Ar 0.375443 6.95738 0.0
Ar 11.1636 6.22452 0.0
Ar 10.1201 8.29305 0.0
36
step 1400
Ar 0.711187 11.9373 0.0
Ar 4.2224 11.0611 0.0
Ar 5.20604 4.79137 0.0
Ar 11.8716 3.90396 0.0
Ar 2.30572 7.89147 0.0
Ar 10.7218 9.15879 0.0
Ar 3.07123 3.12867 0.0
Ar 6.44207 4.53963 0.0
Ar 4.55037 3.58792 0.0
Ar 7.86751 5.15011 0.0
Ar 3.67277 9.06183 0.0
Ar 7.13524 7.78783 0.0
Ar 11.8556 9.33684 0.0
Ar 6.42469 6.02363 0.0
Ar 5.88873 3.49417 0.0
Ar 3.46668 10.1212 0.0
Ar 0.878863 10.0452 0.0
Ar 1.36422 11.0067 0.0
Ar 2.53685 10.8806 0.0
Ar 7.37149 3.95114 0.0
Ar 5.91998 10.4875 0.0
Ar 1.95569 9.9468 0.0
Ar 7.84007 10.2344 0.0
Ar 8.58096 0.613139 0.0
Ar 4.83186 1.74794 0.0
Ar 8.75952 1.90542 0.0
Ar 9.96747 3.48854 0.0
Ar 11.0657 11.624 0.0
Ar 5.98874 8.85588 0.0
Ar 10.0638 1.31457 0.0
Ar 1.25877 1.79213 0.0
Ar 10.7849 4.41236 0.0
Ar 11.6801 5.29916 0.0
Ar 0.444097 6.94554 0.0
Ar 11.1034 6.25733 0.0
Ar 10.1899 8.21586 0.0
36
step 1420
Ar 0.564666 11.9909 0.0
Ar 4.21201 11.0255 0.0
Ar 5.1643 4.76582 0.0
Ar 11.8781 3.80392 0.0
Ar 2.47364 7.85021 0.0
Ar 10.6647 9.17727 0.0
Ar 3.13105 3.19805 0.0
Ar 6.34068 4.64913 0.0
Ar 4.57122 3.5273 0.0
Ar 7.83034 5.22084 0.0
Ar 3.65035 8.95713 0.0
Ar 7.20219 7.76893 0.0
Ar 11.7972 9.31945 0.0
Ar 6.56935 6.17863 0.0
Ar 5.82992 3.54845 0.0
Ar 3.32184 10.1353 0.0
Ar 0.676813 10.1499 0.0
Ar 1.31413 11.0674 0.0
Ar 2.33454 11.0063 0.0
Ar 7.3941 3.73369 0.0
Ar 6.02488 10.4959 0.0
Ar 1.97956 9.88608 0.0
Ar 7.91029 10.0185 0.0
Ar 8.71532 0.600874 0.0
Ar 5.04553 1.87912 0.0
Ar 8.73996 1.89402 0.0
Ar 10.1494 3.59904 0.0
Ar 11.1815 11.6061 0.0
Ar 5.9772 8.81734 0.0
Ar 10.1638 1.31051 0.0
Ar 1.19187 1.74553 0.0
Ar 10.7067 4.43399 0.0
Ar 11.4909 5.3 0.0
Ar 0.502294 6.92635 0.0
Ar 11.0512 6.29644 0.0
Ar 10.2484 8.11605 0.0
36
step 1440
Ar 0.418373 0.0239055 0.0
Ar 4.18413 10.9712 0.0
Ar 5.14146 4.70726 0.0
Ar 11.8597 3.72266 0.0
Ar 2.64607 7.81557 0.0
Ar 10.6162 9.1924 0.0
Ar 3.20337 3.2696 0.0
Ar 6.23322 4.74104 0.0
Ar 4.61327 3.47681 0.0
Ar 7.77592 5.28409 0.0
Ar 3.61564 8.86797 0.0
Ar 7.26163 7.75054 0.0
Ar 11.7457 9.31606 0.0
Ar 6.71999 6.32234 0.0
Ar 5.75648 3.63675 0.0
Ar 3.16324 10.1588 0.0
Ar 0.473167 10.2343 0.0
Ar 1.15318 11.1386 0.0
Ar 2.25481 11.0953 0.0
Ar 7.39881 3.53517 0.0
Ar 6.12916 10.4988 0.0
Ar 2.00038 9.86146 0.0
Ar 7.97758 9.80224 0.0
Ar 8.8569 0.614695 0.0
Ar 5.2585 2.01851 0.0
Ar 8.72958 1.85735 0.0
Ar 10.254 3.57963 0.0
Ar 11.313 11.5919 0.0
Ar 5.97154 8.78013 0.0
Ar 10.2486 1.30611 0.0
Ar 1.12409 1.69681 0.0
Ar 10.7155 4.56149 0.0
Ar 11.3266 5.29059 0.0
Ar 0.552269 6.90233 0.0
Ar 10.9972 6.35649 0.0
Ar 10.3107 8.02099 0.0
36
step 1460
Ar 0.289591 0.0557362 0.0
Ar 4.13777 10.9017 0.0
Ar 5.09574 4.61382 0.0
Ar 11.8191 3.65511 0.0
Ar 2.82784 7.79358 0.0
Ar 10.5703 9.18788 0.0
Ar 3.29169 3.34335 0.0
Ar 6.15178 4.81797 0.0
Ar 4.66056 3.43674 0.0
Ar 7.70516 5.35004 0.0
Ar 3.56329 8.7873 0.0
Ar 7.31257 7.72691 0.0
Ar 11.6974 9.32533 0.0
Ar 6.88087 6.46059 0.0
Ar 5.68099 3.75353 0.0
Ar 3.00072 10.1922 0.0
Ar 0.267961 10.3136 0.0
Ar 0.948526 11.2059 0.0
Ar 2.22392 11.1432 0.0
Ar 7.3939 3.34465 0.0
Ar 6.23307 10.4966 0.0
Ar 2.02432 9.87081 0.0
Ar 8.04196 9.58526 0.0
Ar 9.00465 0.656105 0.0
Ar 5.46932 2.17086 0.0
Ar 8.72842 1.79619 0.0
Ar 10.3309 3.49299 0.0
Ar 11.44 11.5676 0.0
Ar 5.97153 8.74407 0.0
Ar 10.3187 1.29924 0.0
Ar 1.05471 1.64532 0.0
Ar 10.593 4.53574 0.0
Ar 11.3511 5.47383 0.0
Ar 0.595439 6.875 0.0
Ar 10.9415 6.43617 0.0
Ar 10.3817 7.94508 0.0
36
step 1480
Ar 0.306646 0.214701 0.0
Ar 4.07178 10.82 0.0
Ar 4.95035 4.57078 0.0
Ar 11.757 3.59523 0.0
Ar 3.01858 7.78491 0.0
Ar 10.5286 9.16161 0.0
Ar 3.40016 3.41876 0.0
Ar 6.10463 4.88771 0.0
Ar 4.66881 3.3974 0.0
Ar 7.61728 5.42683 0.0
Ar 3.49574 8.70738 0.0
Ar 7.35355 7.6896 0.0
Ar 11.6467 9.34158 0.0
Ar 7.05651 6.59972 0.0
Ar 5.70931 3.80962 0.0
Ar 2.94857 10.2794 0.0
Ar 0.0546165 10.3978 0.0
Ar 0.781693 11.2382 0.0
Ar 2.18292 11.1517 0.0
Ar 7.38358 3.15709 0.0
Ar 6.33671 10.4898 0.0
Ar 1.94348 9.86985 0.0
Ar 8.10342 9.36694 0.0
Ar 9.1616 0.718029 0.0
Ar 5.67535 2.34169 0.0
Ar 8.73555 1.72027 0.0
Ar 10.4112 3.37643 0.0
Ar 11.4166 11.4354 0.0
Ar 5.97711 8.70857 0.0
Ar 10.3722 1.28767 0.0
Ar 0.982992 1.58969 0.0
Ar 10.4764 4.52183 0.0
Ar 11.4161 5.60893 0.0
Ar 0.631771 6.84457 0.0
Ar 10.8613 6.58365 0.0
Ar 10.4612 7.88655 0.0
36
step 1500
Ar 0.328516 0.412142 0.0
Ar 3.98544 10.7286 0.0
Ar 4.76983 4.55924 0.0
Ar 11.6694 3.53836 0.0
Ar 3.16871 7.68753 0.0
Ar 10.4921 9.11447 0.0
Ar 3.53352 3.49541 0.0
Ar 6.04626 4.94417 0.0
Ar 4.66303 3.36944 0.0
Ar 7.51246 5.52083 0.0
Ar 3.4651 8.72525 0.0
Ar 7.397 7.68501 0.0
Ar 11.5922 9.36267 0.0
Ar 7.23511 6.69009 0.0
Ar 5.79492 3.81341 0.0
Ar 2.95932 10.3991 0.0
Ar 11.8427 10.461 0.0
Ar 0.63554 11.2488 0.0
Ar 2.13071 11.1287 0.0
Ar 7.36775 2.96993 0.0
Ar 6.44008 10.479 0.0
Ar 1.81201 9.8732 0.0
Ar 8.16198 9.14602 0.0
Ar 9.34717 0.767545 0.0
Ar 5.87495 2.53752 0.0
Ar 8.73662 1.66578 0.0
Ar 10.5092 3.26805 0.0
Ar 11.3892 11.3052 0.0
Ar 5.98828 8.67318 0.0
Ar 10.4035 1.26883 0.0
Ar 0.90597 1.52404 0.0
Ar 10.3775 4.50917 0.0
Ar 11.4788 5.72445 0.0
Ar 0.660518 6.81039 0.0
Ar 10.7753 6.75729 0.0
Ar 10.5493 7.83608 0.0
36
step 1520
Ar 0.34715 0.585795 0.0
Ar 3.94532 10.6482 0.0
Ar 4.61767 4.51528 0.0
Ar 11.5707 3.48607 0.0
Ar 3.29617 7.53196 0.0
Ar 10.4607 9.04636 0.0
Ar 3.67063 3.57865 0.0
Ar 5.97324 4.98256 0.0
Ar 4.69363 3.36264 0.0
Ar 7.39523 5.62118 0.0
Ar 3.45468 8.80825 0.0
Ar 7.46249 7.81873 0.0
Ar 11.5285 9.35749 0.0
Ar 7.39409 6.64104 0.0
Ar 5.85153 3.81453 0.0
Ar 2.91441 10.4846 0.0
Ar 11.7567 10.3265 0.0
Ar 0.475836 11.2744 0.0
Ar 2.05082 11.0936 0.0
Ar 7.34023 2.78098 0.0
Ar 6.54322 10.4648 0.0
Ar 1.70261 9.90938 0.0
Ar 8.2159 8.91893 0.0
Ar 9.54315 0.793723 0.0
Ar 6.07248 2.76345 0.0
Ar 8.72817 1.63382 0.0
Ar 10.6095 3.18062 0.0
Ar 11.2746 11.4068 0.0
Ar 6.00549 8.63746 0.0
Ar 10.4345 1.25323 0.0
Ar 0.82514 1.45141 0.0
Ar 10.2919 4.47535 0.0
Ar 11.5298 5.85803 0.0
Ar 0.680125 6.77105 0.0
Ar 10.7125 6.85345 0.0
Ar 10.631 7.86962 0.0
36
step 1540
Ar 0.267218 0.561976 0.0
Ar 3.98359 10.5812 0.0
Ar 4.48284 4.44241 0.0
Ar 11.5997 3.48209 0.0
Ar 3.42602 7.39579 0.0
Ar 10.4143 8.9794 0.0
Ar 3.75469 3.68788 0.0
Ar 5.89259 5.0016 0.0
Ar 4.82281 3.36042 0.0
Ar 7.26498 5.6102 0.0
Ar 3.43998 8.87916 0.0
Ar 7.53173 7.96417 0.0
Ar 11.4416 9.20271 0.0
Ar 7.55543 6.70243 0.0
Ar 5.85796 3.88994 0.0
Ar 2.82237 10.5053 0.0
Ar 11.7264 10.3378 0.0
Ar 0.291702 11.307 0.0
Ar 1.90527 11.0738 0.0
Ar 7.29534 2.59105 0.0
Ar 6.64619 10.4476 0.0
Ar 1.61518 9.97811 0.0
Ar 8.26105 8.67976 0.0
Ar 9.60181 0.762701 0.0
Ar 6.29474 2.93644 0.0
Ar 8.73135 1.59378 0.0
Ar 10.5714 3.06656 0.0
Ar 11.1769 11.5307 0.0
Ar 6.02977 8.60098 0.0
Ar 10.5925 1.30542 0.0
Ar 0.837087 1.54658 0.0
Ar 10.2189 4.41992 0.0
Ar 11.5742 6.01541 0.0
Ar 0.686605 6.72391 0.0
Ar 10.6807 6.80103 0.0
Ar 10.7049 8.03464 0.0
36
step 1560
Ar 0.150802 0.462915 0.0
Ar 4.01054 10.5106 0.0
Ar 4.46847 4.45809 0.0
Ar 11.6655 3.4952 0.0
Ar 3.55617 7.27237 0.0
Ar 10.261 9.0613 0.0
Ar 3.73302 3.70212 0.0
Ar 5.81152 5.04331 0.0
Ar 4.98208 3.36635 0.0
Ar 7.12212 5.56716 0.0
Ar 3.42352 8.94605 0.0
Ar 7.4742 7.98626 0.0
Ar 11.4014 9.03887 0.0
Ar 7.71733 6.81609 0.0
Ar 5.81341 4.02086 0.0
Ar 2.75276 10.4926 0.0
Ar 11.6894 10.3715 0.0
Ar 0.115587 11.3613 0.0
Ar 1.72074 11.0797 0.0
Ar 7.31351 2.37023 0.0
Ar 6.74883 10.428 0.0
Ar 1.54374 10.0533 0.0
Ar 8.42647 8.54166 0.0
Ar 9.62167 0.733144 0.0
Ar 6.47589 3.06364 0.0
Ar 8.74996 1.541 0.0
Ar 10.4871 2.94936 0.0
Ar 11.0961 11.6468 0.0
Ar 6.06243 8.56341 0.0
Ar 10.7771 1.37162 0.0
Ar 0.873294 1.68714 0.0
Ar 10.1562 4.34619 0.0
Ar 11.6213 6.19574 0.0
Ar 0.673321 6.66624 0.0
Ar 10.6649 6.75175 0.0
Ar 10.8386 8.0382 0.0
36
step 1580
Ar 0.0229214 0.406175 0.0
Ar 4.01148 10.4339 0.0
Ar 4.58118 4.54885 0.0
Ar 11.7085 3.50046 0.0
Ar 3.68591 7.15503 0.0
Ar 10.0999 9.15834 0.0
Ar 3.64202 3.61788 0.0
Ar 5.73191 5.19172 0.0
Ar 5.06999 3.35047 0.0
Ar 6.96997 5.53282 0.0
Ar 3.40649 9.01832 0.0
Ar 7.34193 7.9397 0.0
Ar 11.3735 8.90902 0.0
Ar 7.86925 6.93671 0.0
Ar 5.81571 4.08478 0.0
Ar 2.67306 10.475 0.0
Ar 11.6307 10.371 0.0
Ar 0.0110686 11.3889 0.0
Ar 1.55408 11.1555 0.0
Ar 7.37856 2.12318 0.0
Ar 6.85092 10.4064 0.0
Ar 1.47749 10.0613 0.0
Ar 8.66146 8.45469 0.0
Ar 9.64758 0.72559 0.0
Ar 6.59748 3.22674 0.0
Ar 8.78013 1.47805 0.0
Ar 10.4189 2.84671 0.0
Ar 10.983 11.7816 0.0
Ar 6.10671 8.52306 0.0
Ar 10.9487 1.42799 0.0
Ar 0.8996 1.81445 0.0
Ar 10.1015 4.25648 0.0
Ar 11.6709 6.37423 0.0
Ar 0.662531 6.60863 0.0
Ar 10.6453 6.72903 0.0
Ar 10.9697 7.9872 0.0
36
step 1600
Ar 11.8732 0.471854 0.0
Ar 3.98802 10.3485 0.0
Ar 4.72829 4.60909 0.0
Ar 11.7354 3.49886 0.0
Ar 3.81525 7.04051 0.0
Ar 9.96225 9.23748 0.0
Ar 3.57856 3.54354 0.0
Ar 5.65482 5.353 0.0
Ar 5.08687 3.30349 0.0
Ar 6.79795 5.49567 0.0
Ar 3.3899 9.10392 0.0
Ar 7.21068 7.89916 0.0
Ar 11.38 8.9151 0.0
Ar 8.01617 7.06405 0.0
Ar 5.86916 4.18211 0.0
Ar 2.57609 10.4539 0.0
Ar 11.5554 10.3323 0.0
Ar 11.9477 11.321 0.0
Ar 1.3972 11.2499 0.0
Ar 7.44225 1.8861 0.0
Ar 6.95239 10.3833 0.0
Ar 1.42629 10.0505 0.0
Ar 8.88743 8.36089 0.0
Ar 9.68372 0.727626 0.0
Ar 6.70826 3.39025 0.0
Ar 8.81114 1.41293 0.0
Ar 10.3631 2.75298 0.0
Ar 10.867 11.9357 0.0
Ar 6.16891 8.47585 0.0
Ar 11.1159 1.47321 0.0
Ar 0.919563 1.93675 0.0
Ar 10.0537 4.15116 0.0
Ar 11.6419 6.52233 0.0
Ar 0.75764 6.57616 0.0
Ar 10.6013 6.73942 0.0
Ar 11.0366 7.80142 0.0
36
step 1620
Ar 11.7147 0.55055 0.0
Ar 3.94088 10.2481 0.0
Ar 4.90487 4.64655 0.0
Ar 11.7517 3.49131 0.0
Ar 3.94455 6.9271 0.0
Ar 9.82988 9.30014 0.0
Ar 3.53302 3.47422 0.0
Ar 5.57241 5.48627 0.0
Ar 5.10269 3.28696 0.0
Ar 6.618 5.45046 0.0
Ar 3.37597 9.21215 0.0
Ar 7.08786 7.85297 0.0
Ar 11.3786 8.94531 0.0
Ar 8.15593 7.20785 0.0
Ar 5.90887 4.29362 0.0
Ar 2.46555 10.4257 0.0
Ar 11.4615 10.2394 0.0
Ar 11.8977 11.3038 0.0
Ar 1.23699 11.3174 0.0
Ar 7.51638 1.65036 0.0
Ar 7.05332 10.3586 0.0
Ar 1.39151 10.0674 0.0
Ar 9.11747 8.26856 0.0
Ar 9.7457 0.722003 0.0
Ar 6.80399 3.55938 0.0
Ar 8.82591 1.35687 0.0
Ar 10.3168 2.66588 0.0
Ar 10.7613 0.0944457 0.0
Ar 6.23939 8.4264 0.0
Ar 11.2818 1.50472 0.0
Ar 0.933187 2.05688 0.0
Ar 10.0125 4.02986 0.0
Ar 11.6309 6.66977 0.0
Ar 0.873702 6.54882 0.0
Ar 10.5069 6.75819 0.0
Ar 11.1077 7.60193 0.0
36
step 1640
Ar 11.6423 0.556076 0.0
Ar 3.88557 10.1543 0.0
Ar 4.9961 4.65138 0.0
Ar 11.7607 3.47765 0.0
Ar 4.0747 6.81319 0.0
Ar 9.69597 9.3422 0.0
Ar 3.4991 3.40653 0.0
Ar 5.44584 5.63486 0.0
Ar 5.12639 3.30853 0.0
Ar 6.5002 5.38242 0.0
Ar 3.35053 9.3238 0.0
Ar 7.07389 7.73375 0.0
Ar 11.3664 8.97982 0.0
Ar 8.28542 7.37428 0.0
Ar 6.01204 4.39652 0.0
Ar 2.3665 10.3939 0.0
Ar 11.369 10.1321 0.0
Ar 11.8491 11.3133 0.0
Ar 1.06552 11.3556 0.0
Ar 7.60984 1.41193 0.0
Ar 7.15375 10.3326 0.0
Ar 1.34874 10.1086 0.0
Ar 9.35161 8.1825 0.0
Ar 9.80496 0.725187 0.0
Ar 6.88431 3.7378 0.0
Ar 8.82211 1.30714 0.0
Ar 10.2777 2.58683 0.0
Ar 10.6307 0.221367 0.0
Ar 6.22352 8.4389 0.0
Ar 11.409 1.60943 0.0
Ar 0.939048 2.17607 0.0
Ar 9.97829 3.89095 0.0
Ar 11.7099 6.7049 0.0
Ar 0.96571 6.52439 0.0
Ar 10.3668 6.71978 0.0
Ar 11.1587 7.59157 0.0
36
step 1660
Ar 11.6552 0.507753 0.0
Ar 3.91676 10.2101 0.0
Ar 4.99387 4.63109 0.0
Ar 11.7647 3.45634 0.0
Ar 4.2084 6.69597 0.0
Ar 9.56363 9.36138 0.0
Ar 3.47393 3.33986 0.0
Ar 5.30303 5.80374 0.0
Ar 5.15538 3.36505 0.0
Ar 6.44614 5.37701 0.0
Ar 3.2185 9.2979 0.0
Ar 7.11297 7.58554 0.0
Ar 11.3468 9.0006 0.0
Ar 8.40902 7.55963 0.0
Ar 6.11765 4.42718 0.0
Ar 2.33254 10.3689 0.0
Ar 11.2843 10.0436 0.0
Ar 11.7997 11.3318 0.0
Ar 0.882285 11.3672 0.0
Ar 7.72289 1.17171 0.0
Ar 7.25361 10.3054 0.0
Ar 1.24543 10.1591 0.0
Ar 9.58167 8.10253 0.0
Ar 9.68638 0.846401 0.0
Ar 6.99085 3.89819 0.0
Ar 8.78804 1.26702 0.0
Ar 10.2452 2.5178 0.0
Ar 10.6454 0.204818 0.0
Ar 6.17884 8.47421 0.0
Ar 11.5114 1.77018 0.0
Ar 0.934372 2.29493 0.0
Ar 9.95191 3.73139 0.0
Ar 11.8718 6.60836 0.0
Ar 1.03348 6.50377 0.0
Ar 10.2444 6.68748 0.0
Ar 11.1294 7.72624 0.0
36
step 1680
Ar 11.7293 0.47518 0.0
Ar 3.95357 10.288 0.0
Ar 5.0041 4.60876 0.0
Ar 11.7662 3.42332 0.0
Ar 4.35292 6.56936 0.0
Ar 9.4373 9.35648 0.0
Ar 3.45592 3.27447 0.0
Ar 5.16805 5.94843 0.0
Ar 5.18924 3.4576 0.0
Ar 6.43347 5.53725 0.0
Ar 3.06062 9.26474 0.0
Ar 7.15894 7.45023 0.0
Ar 11.3236 8.93313 0.0
Ar 8.5327 7.75554 0.0
Ar 6.05239 4.34183 0.0
Ar 2.3295 10.336 0.0
Ar 11.202 10.0398 0.0
Ar 11.6924 11.3577 0.0
Ar 0.743067 11.358 0.0
Ar 7.74539 0.91102 0.0
Ar 7.3531 10.277 0.0
Ar 1.11596 10.2291 0.0
Ar 9.80535 8.02658 0.0
Ar 9.70622 0.912783 0.0
Ar 7.18394 4.00798 0.0
Ar 8.69107 1.32105 0.0
Ar 10.2189 2.45954 0.0
Ar 10.6371 0.152375 0.0
Ar 6.15027 8.49613 0.0
Ar 11.6128 1.92257 0.0
Ar 0.913991 2.41384 0.0
Ar 9.93417 3.54941 0.0
Ar 0.0275513 6.52502 0.0
Ar 1.08982 6.48484 0.0
Ar 10.1367 6.67834 0.0
Ar 11.0922 7.8566 0.0
36
step 1700
Ar 11.8081 0.449608 0.0
Ar 3.97088 10.3519 0.0
Ar 4.99116 4.60822 0.0
Ar 11.7685 3.37001 0.0
Ar 4.32166 6.57206 0.0
Ar 9.31821 9.33155 0.0
Ar 3.44364 3.21057 0.0
Ar 5.22969 5.93224 0.0
Ar 5.22909 3.57129 0.0
Ar 6.39419 5.6859 0.0
Ar 2.90175 9.26451 0.0
Ar 7.20999 7.32652 0.0
Ar 11.3099 8.89889 0.0
Ar 8.66558 7.95491 0.0
Ar 6.01303 4.25399 0.0
Ar 2.32302 10.2846 0.0
Ar 11.1249 10.0692 0.0
Ar 11.4976 11.3768 0.0
Ar 0.668962 11.3399 0.0
Ar 7.64407 0.61089 0.0
Ar 7.45268 10.2475 0.0
Ar 0.997302 10.317 0.0
Ar 10.0241 7.94665 0.0
Ar 9.78913 0.954187 0.0
Ar 7.36923 4.12066 0.0
Ar 8.67945 1.43381 0.0
Ar 10.2052 2.38013 0.0
Ar 10.6303 0.103039 0.0
Ar 6.1324 8.50876 0.0
Ar 11.7196 2.08128 0.0
Ar 0.86886 2.53291 0.0
Ar 9.91723 3.37607 0.0
Ar 0.123532 6.44985 0.0
Ar 1.19819 6.46479 0.0
Ar 10.0334 6.69587 0.0
Ar 11.0255 7.92394 0.0
36
step 1720
Ar 11.8735 0.413106 0.0
Ar 3.97411 10.4077 0.0
Ar 4.94747 4.67925 0.0
Ar 11.7787 3.28767 0.0
Ar 4.1828 6.65277 0.0
Ar 9.20156 9.28758 0.0
Ar 3.4358 3.14825 0.0
Ar 5.38329 5.81216 0.0
Ar 5.20925 3.59003 0.0
Ar 6.36504 5.82068 0.0
Ar 2.74454 9.28026 0.0
Ar 7.26159 7.20872 0.0
Ar 11.3231 9.00969 0.0
Ar 8.81804 8.15955 0.0
Ar 6.08908 4.22621 0.0
Ar 2.30544 10.2272 0.0
Ar 11.0573 10.1009 0.0
Ar 11.3244 11.3597 0.0
Ar 0.560693 11.3742 0.0
Ar 7.55537 0.319915 0.0
Ar 7.55301 10.217 0.0
Ar 0.907466 10.3647 0.0
Ar 10.0131 7.86206 0.0
Ar 9.87446 1.00034 0.0
Ar 7.53253 4.23811 0.0
Ar 8.67841 1.53144 0.0
Ar 10.2194 2.20752 0.0
Ar 10.6168 0.0898281 0.0
Ar 6.12062 8.5162 0.0
Ar 11.8317 2.2569 0.0
Ar 0.793531 2.65605 0.0
Ar 9.88113 3.27893 0.0
Ar 0.173527 6.37776 0.0
Ar 1.34909 6.44468 0.0
Ar 9.93418 6.7439 0.0
Ar 11.1299 7.84911 0.0
36
step 1740
Ar 11.9152 0.34746 0.0
Ar 3.96705 10.4586 0.0
Ar 4.92307 4.76468 0.0
Ar 11.7886 3.33298 0.0
Ar 4.05653 6.72394 0.0
Ar 9.09453 9.27676 0.0
Ar 3.43203 3.08753 0.0
Ar 5.34386 5.68451 0.0
Ar 5.15033 3.57054 0.0
Ar 6.51712 5.95087 0.0
Ar 2.62259 9.2296 0.0
Ar 7.30882 7.09002 0.0
Ar 11.3335 9.11271 0.0
Ar 8.9805 8.31923 0.0
Ar 6.20061 4.24711 0.0
Ar 2.2439 10.2439 0.0
Ar 10.9966 10.1561 0.0
Ar 11.2591 11.2563 0.0
Ar 0.4046 11.4627 0.0
Ar 7.47226 0.0329191 0.0
Ar 7.65537 10.1855 0.0
Ar 0.843888 10.3657 0.0
Ar 9.89242 7.80788 0.0
Ar 9.95316 1.0559 0.0
Ar 7.6797 4.35712 0.0
Ar 8.69862 1.61797 0.0
Ar 10.2389 2.01107 0.0
Ar 10.5387 0.171412 0.0
Ar 6.11257 8.5207 0.0
Ar 11.8577 2.2519 0.0
Ar 0.790742 2.82659 0.0
Ar 9.84438 3.19099 0.0
Ar 0.235243 6.30979 0.0
Ar 1.48537 6.42359 0.0
Ar 9.83759 6.78282 0.0
Ar 11.3249 7.77254 0.0
36
step 1760
Ar 11.8529 0.399697 0.0
Ar 3.95276 10.5067 0.0
Ar 4.86039 4.69605 0.0
Ar 11.7906 3.46689 0.0
Ar 3.93597 6.78992 0.0
Ar 9.02163 9.5089 0.0
Ar 3.43256 3.02851 0.0
Ar 5.35562 5.68507 0.0
Ar 5.10115 3.58313 0.0
Ar 6.68397 6.08543 0.0
Ar 2.51866 9.14177 0.0
Ar 7.34552 6.96056 0.0
Ar 11.3469 9.18222 0.0
Ar 8.99329 8.29727 0.0
Ar 6.28805 4.27411 0.0
Ar 2.15321 10.3034 0.0
Ar 10.9301 10.2133 0.0
Ar 11.228 11.1883 0.0
Ar 0.309349 11.3973 0.0
Ar 7.39083 11.7444 0.0
Ar 7.7624 10.1529 0.0
Ar 0.784746 10.3779 0.0
Ar 9.90881 7.79742 0.0
Ar 9.91275 1.00246 0.0
Ar 7.81376 4.47665 0.0
Ar 8.74385 1.69861 0.0
Ar 10.3107 2.02012 0.0
Ar 10.5254 0.186444 0.0
Ar 6.10695 8.52348 0.0
Ar 11.8332 2.1291 0.0
Ar 0.834174 3.02105 0.0
Ar 9.81633 3.07862 0.0
Ar 0.317447 6.24818 0.0
Ar 1.59827 6.40041 0.0
Ar 9.73616 6.72335 0.0
Ar 11.5036 7.71037 0.0
36
step 1780
Ar 11.7287 0.49761 0.0
Ar 3.93347 10.5529 0.0
Ar 4.78359 4.58318 0.0
Ar 11.7955 3.57881 0.0
Ar 3.81815 6.8528 0.0
Ar 8.93857 9.74635 0.0
Ar 3.4378 2.97159 0.0
Ar 5.40804 5.73591 0.0
Ar 5.06637 3.59753 0.0
Ar 6.775 6.13786 0.0
Ar 2.4094 9.07472 0.0
Ar 7.44056 6.90486 0.0
Ar 11.3659 9.23182 0.0
Ar 8.88865 8.33782 0.0
Ar 6.35541 4.30435 0.0
Ar 2.05236 10.3461 0.0
Ar 10.8315 10.1802 0.0
Ar 11.2104 11.2498 0.0
Ar 0.255673 11.2829 0.0
Ar 7.31154 11.4493 0.0
Ar 7.88182 10.1191 0.0
Ar 0.74265 10.3766 0.0
Ar 10.0542 7.75751 0.0
Ar 9.75886 0.982712 0.0
Ar 7.93709 4.59649 0.0
Ar 8.81663 1.77363 0.0
Ar 10.4116 2.11321 0.0
Ar 10.6168 0.0895166 0.0
Ar 6.10301 8.52507 0.0
Ar 11.8096 2.03071 0.0
Ar 0.858698 3.20549 0.0
Ar 9.7892 2.95434 0.0
Ar 0.419579 6.19444 0.0
Ar 1.68859 6.37481 0.0
Ar 9.63088 6.63478 0.0
Ar 11.6742 7.65514 0.0
36
step 1800
Ar 11.5917 0.566936 0.0
Ar 3.91066 10.5981 0.0
Ar 4.69625 4.58174 0.0
Ar 11.8 3.67823 0.0
Ar 3.70132 6.91382 0.0
Ar 8.92158 9.95273 0.0
Ar 3.4481 2.91726 0.0
Ar 5.46737 5.76933 0.0
Ar 5.06641 3.52237 0.0
Ar 6.74042 6.0486 0.0
Ar 2.29421 9.02982 0.0
Ar 7.64728 6.98318 0.0
Ar 11.3981 9.25903 0.0
Ar 8.79928 8.38445 0.0
Ar 6.40885 4.33822 0.0
Ar 1.93669 10.3697 0.0
Ar 10.7225 10.1594 0.0
Ar 11.1982 11.2168 0.0
Ar 0.23266 11.2725 0.0
Ar 7.23862 11.1408 0.0
Ar 7.93144 10.1113 0.0
Ar 0.759257 10.2896 0.0
Ar 10.1854 7.71035 0.0
Ar 9.61124 0.985784 0.0
Ar 8.05168 4.71713 0.0
Ar 8.91938 1.84514 0.0
Ar 10.5545 2.13377 0.0
Ar 10.6336 0.119852 0.0
Ar 6.1004 8.52571 0.0
Ar 11.7727 1.93943 0.0
Ar 0.875011 3.38392 0.0
Ar 9.71714 2.87097 0.0
Ar 0.541654 6.14997 0.0
Ar 1.75643 6.34646 0.0
Ar 9.53082 6.56613 0.0
Ar 11.8391 7.60144 0.0
36
step 1820
Ar 11.5104 0.653707 0.0
Ar 3.88536 10.6424 0.0
Ar 4.61672 4.60841 0.0
Ar 11.7984 3.77205 0.0
Ar 3.58396 6.97365 0.0
Ar 9.0774 10.117 0.0
Ar 3.46376 2.86572 0.0
Ar 5.54094 5.78972 0.0
Ar 5.07458 3.43438 0.0
Ar 6.69609 5.95848 0.0
Ar 2.17352 9.00377 0.0
Ar 7.84767 7.05332 0.0
Ar 11.4342 9.28562 0.0
Ar 8.71758 8.43262 0.0
Ar 6.45337 4.37837 0.0
Ar 1.81492 10.3777 0.0
Ar 10.618 10.1523 0.0
Ar 11.1529 11.0975 0.0
Ar 0.283825 11.2923 0.0
Ar 7.16149 10.8346 0.0
Ar 7.81648 10.1325 0.0
Ar 0.787601 10.1845 0.0
Ar 10.3044 7.65066 0.0
Ar 9.49784 0.974037 0.0
Ar 8.15919 4.83936 0.0
Ar 9.03111 1.94383 0.0
Ar 10.7126 2.12562 0.0
Ar 10.5268 0.221849 0.0
Ar 6.09887 8.52596 0.0
Ar 11.7179 1.83962 0.0
Ar 0.893044 3.55839 0.0
Ar 9.62566 2.78485 0.0
Ar 0.682889 6.11587 0.0
Ar 1.80283 6.31538 0.0
Ar 9.43771 6.51807 0.0
Ar 4.63292e-05 7.54589 0.0
36
step 1840
Ar 11.4689 0.752829 0.0
Ar 3.85826 10.6861 0.0
Ar 4.55505 4.62228 0.0
Ar 11.7916 3.86257 0.0
Ar 3.46458 7.03246 0.0
Ar 9.22866 10.2762 0.0
Ar 3.48507 2.81704 0.0
Ar 5.61632 5.79744 0.0
Ar 5.0749 3.36928 0.0
Ar 6.65272 5.86284 0.0
Ar 2.0469 8.99528 0.0
Ar 8.05084 7.12087 0.0
Ar 11.4625 9.33008 0.0
Ar 8.63644 8.47858 0.0
Ar 6.49185 4.42958 0.0
Ar 1.76788 10.3879 0.0
Ar 10.5065 10.1122 0.0
Ar 11.1147 11.0205 0.0
Ar 0.339347 11.2964 0.0
Ar 6.91744 10.7048 0.0
Ar 7.88426 9.97475 0.0
Ar 0.727205 10.0789 0.0
Ar 10.4165 7.58184 0.0
Ar 9.42647 0.923769 0.0
Ar 8.26087 4.96426 0.0
Ar 9.03631 1.93865 0.0
Ar 10.7638 2.14526 0.0
Ar 10.372 0.303583 0.0
Ar 6.09839 8.52629 0.0
Ar 11.7439 1.71064 0.0
Ar 0.913811 3.73096 0.0
Ar 9.64913 2.82056 0.0
Ar 0.820063 6.08889 0.0
Ar 1.85124 6.28598 0.0
Ar 9.34659 6.4848 0.0
Ar 0.159111 7.48573 0.0
36
step 1860
Ar 11.3619 0.692477 0.0
Ar 3.82968 10.7295 0.0
Ar 4.50848 4.62354 0.0
Ar 11.7873 3.95018 0.0
Ar 3.34138 7.08972 0.0
Ar 9.38185 10.4281 0.0
Ar 3.51247 2.77138 0.0
Ar 5.60583 5.78849 0.0
Ar 5.06579 3.32302 0.0
Ar 6.69602 5.75695 0.0
Ar 1.91334 9.00498 0.0
Ar 8.26976 7.1906 0.0
Ar 11.483 9.39903 0.0
Ar 8.55078 8.51943 0.0
Ar 6.52558 4.50003 0.0
Ar 1.75951 10.3957 0.0
Ar 10.3857 10.0438 0.0
Ar 11.1062 10.974 0.0
Ar 0.378776 11.2744 0.0
Ar 6.65745 10.5922 0.0
Ar 7.98805 9.79632 0.0
Ar 0.60965 9.97692 0.0
Ar 10.5245 7.50747 0.0
Ar 9.35751 0.858765 0.0
Ar 8.35842 5.09339 0.0
Ar 8.9678 1.86067 0.0
Ar 10.7337 2.18775 0.0
Ar 10.2526 0.375817 0.0
Ar 6.09914 8.52737 0.0
Ar 11.875 1.71144 0.0
Ar 0.930494 3.90387 0.0
Ar 9.76116 2.94095 0.0
Ar 0.889313 6.05767 0.0
Ar 1.96586 6.27139 0.0
Ar 9.2474 6.46443 0.0
Ar 0.318614 7.41826 0.0
36
step 1880
Ar 11.2414 0.596984 0.0
Ar 3.79981 10.7726 0.0
Ar 4.4751 4.6148 0.0
Ar 11.7914 4.03545 0.0
Ar 3.21084 7.14306 0.0
Ar 9.48605 10.5996 0.0
Ar 3.54668 2.72906 0.0
Ar 5.55703 5.76624 0.0
Ar 5.04641 3.29107 0.0
Ar 6.77876 5.63204 0.0
Ar 1.77158 9.03482 0.0
Ar 8.50276 7.27063 0.0
Ar 11.4989 9.49543 0.0
Ar 8.45671 8.55723 0.0
Ar 6.55525 4.5953 0.0
Ar 1.72944 10.3836 0.0
Ar 10.3388 9.95374 0.0
Ar 11.1078 10.9204 0.0
Ar 0.402029 11.2251 0.0
Ar 6.40623 10.4728 0.0
Ar 8.09888 9.61209 0.0
Ar 0.492024 9.89214 0.0
Ar 10.6302 7.4301 0.0
Ar 9.20553 0.809641 0.0
Ar 8.45404 5.23075 0.0
Ar 8.89947 1.83814 0.0
Ar 10.7009 2.22627 0.0
Ar 10.24 0.391106 0.0
Ar 6.10128 8.52996 0.0
Ar 11.9976 1.75261 0.0
Ar 0.937268 4.07784 0.0
Ar 9.88125 3.0316 0.0
Ar 0.928987 6.03194 0.0
Ar 2.11046 6.26693 0.0
Ar 9.13832 6.44927 0.0
Ar 0.480889 7.33971 0.0
36
step 1900
Ar 11.2368 0.534431 0.0
Ar 3.76872 10.8155 0.0
Ar 4.4542 4.59777 0.0
Ar 11.805 4.1194 0.0
Ar 3.06722 7.18634 0.0
Ar 9.54806 10.7987 0.0
Ar 3.58885 2.69069 0.0
Ar 5.52923 5.72801 0.0
Ar 5.01533 3.27094 0.0
Ar 6.86953 5.59907 0.0
Ar 1.6197 9.08899 0.0
Ar 8.69368 7.43212 0.0
Ar 11.4332 9.59362 0.0
Ar 8.38047 8.5075 0.0
Ar 6.55415 4.60703 0.0
Ar 1.67355 10.3487 0.0
Ar 10.3723 9.84678 0.0
Ar 11.1142 10.8465 0.0
Ar 0.409734 11.1463 0.0
Ar 6.15733 10.3499 0.0
Ar 8.19559 9.49667 0.0
Ar 0.454984 9.85319 0.0
Ar 10.7344 7.35122 0.0
Ar 9.04797 0.734427 0.0
Ar 8.55137 5.38469 0.0
Ar 8.83053 1.85928 0.0
Ar 10.6758 2.25636 0.0
Ar 10.1419 0.372462 0.0
Ar 6.10497 8.53497 0.0
Ar 0.0926271 1.78542 0.0
Ar 0.933486 4.25372 0.0
Ar 10.0027 3.10819 0.0
Ar 0.981987 6.0242 0.0
Ar 2.24644 6.27002 0.0
Ar 9.06584 6.36224 0.0
Ar 0.648158 7.24461 0.0
36
step 1920
Ar 11.2712 0.482345 0.0
Ar 3.73695 10.8581 0.0
Ar 4.44609 4.57274 0.0
Ar 11.824 4.20262 0.0
Ar 2.9096 7.21613 0.0
Ar 9.63164 10.9888 0.0
Ar 3.64087 2.65734 0.0
Ar 5.5219 5.67326 0.0
Ar 4.97056 3.2616 0.0
Ar 6.97771 5.67603 0.0
Ar 1.45295 9.17417 0.0
Ar 8.91101 7.54009 0.0
Ar 11.3573 9.68093 0.0
Ar 8.30486 8.3599 0.0
Ar 6.51344 4.51747 0.0
Ar 1.58711 10.2898 0.0
Ar 10.3429 9.7842 0.0
Ar 11.1257 10.7438 0.0
Ar 0.403978 11.0332 0.0
Ar 5.90889 10.2233 0.0
Ar 8.25787 9.54657 0.0
Ar 0.518394 9.86051 0.0
Ar 10.8377 7.27167 0.0
Ar 8.90309 0.66064 0.0
Ar 8.59543 5.44957 0.0
Ar 8.76978 1.8771 0.0
Ar 10.6746 2.25755 0.0
Ar 9.99877 0.346107 0.0
Ar 6.11009 8.54378 0.0
Ar 0.16905 1.81341 0.0
Ar 0.923389 4.43354 0.0
Ar 10.1076 3.20051 0.0
Ar 1.05143 6.03716 0.0
Ar 2.37009 6.28351 0.0
Ar 9.05168 6.35422 0.0
Ar 0.822283 7.12836 0.0
36
step 1940
Ar 11.2885 0.429501 0.0
Ar 3.70508 10.9002 0.0
Ar 4.45186 4.53849 0.0
Ar 11.8426 4.28461 0.0
Ar 2.76633 7.28181 0.0
Ar 9.73745 11.18 0.0
Ar 3.70581 2.63097 0.0
Ar 5.52835 5.60275 0.0
Ar 4.90897 3.26318 0.0
Ar 7.07341 5.73641 0.0
Ar 1.29503 9.23193 0.0
Ar 9.21284 7.51311 0.0
Ar 11.4434 9.70701 0.0
Ar 8.14958 8.35889 0.0
Ar 6.4701 4.45108 0.0
Ar 1.49732 10.2582 0.0
Ar 10.1879 9.77202 0.0
Ar 11.1244 10.6823 0.0
Ar 0.386437 10.8942 0.0
Ar 5.66078 10.0912 0.0
Ar 8.3217 9.58489 0.0
Ar 0.540438 9.88746 0.0
Ar 10.939 7.19179 0.0
Ar 8.76659 0.604213 0.0
Ar 8.54404 5.34462 0.0
Ar 8.71695 1.87318 0.0
Ar 10.6888 2.23944 0.0
Ar 9.86474 0.310157 0.0
Ar 6.11597 8.55826 0.0
Ar 0.231726 1.83832 0.0
Ar 0.91336 4.62159 0.0
Ar 10.2042 3.3038 0.0
Ar 1.14434 6.0221 0.0
Ar 2.45254 6.2587 0.0
Ar 9.12311 6.51867 0.0
Ar 0.996353 7.03496 0.0
36
step 1960
Ar 11.2922 0.374303 0.0
Ar 3.67367 10.9417 0.0
Ar 4.47311 4.49208 0.0
Ar 11.8603 4.36566 0.0
Ar 2.63375 7.38879 0.0
Ar 9.86059 11.3217 0.0
Ar 3.78822 2.61506 0.0
Ar 5.54423 5.51526 0.0
Ar 4.82574 3.27584 0.0
Ar 7.16409 5.7791 0.0
Ar 1.24093 9.12993 0.0
Ar 9.5219 7.63666 0.0
Ar 11.4897 9.62017 0.0
Ar 8.00817 8.37184 0.0
Ar 6.42302 4.40779 0.0
Ar 1.47898 10.3288 0.0
Ar 10.0551 9.78571 0.0
Ar 11.0919 10.7226 0.0
Ar 0.337254 10.8943 0.0
Ar 5.41384 9.95208 0.0
Ar 8.38587 9.60011 0.0
Ar 0.446035 9.841 0.0
Ar 11.0356 7.11187 0.0
Ar 8.63901 0.565664 0.0
Ar 8.48899 5.25737 0.0
Ar 8.66925 1.84526 0.0
Ar 10.7034 2.22971 0.0
Ar 9.7369 0.315974 0.0
Ar 6.12156 8.58028 0.0
Ar 0.283343 1.86111 0.0
Ar 0.905974 4.82604 0.0
Ar 10.3081 3.39334 0.0
Ar 1.2708 5.89325 0.0
Ar 2.49174 6.18999 0.0
Ar 9.17331 6.52779 0.0
Ar 1.16348 7.04189 0.0
36
step 1980
Ar 11.2861 0.312456 0.0
Ar 3.6431 10.982 0.0
Ar 4.51119 4.43068 0.0
Ar 11.8838 4.44908 0.0
Ar 2.48632 7.47516 0.0
Ar 10.0153 11.3021 0.0
Ar 3.88802 2.61136 0.0
Ar 5.56765 5.40695 0.0
Ar 4.7214 3.3016 0.0
Ar 7.25902 5.80702 0.0
Ar 1.23959 8.99374 0.0
Ar 9.83335 7.77868 0.0
Ar 11.3107 9.50096 0.0
Ar 7.87737 8.4033 0.0
Ar 6.36724 4.38476 0.0
Ar 1.44028 10.3967 0.0
Ar 9.94321 9.81732 0.0
Ar 11.0619 10.759 0.0
Ar 0.266565 10.9837 0.0
Ar 5.16982 9.80534 0.0
Ar 8.44991 9.59388 0.0
Ar 0.516325 9.7855 0.0
Ar 11.1239 7.034 0.0
Ar 8.51417 0.547108 0.0
Ar 8.4257 5.18849 0.0
Ar 8.62484 1.79224 0.0
Ar 10.7166 2.23744 0.0
Ar 9.60591 0.472595 0.0
Ar 6.12561 8.61071 0.0
Ar 0.325579 1.88246 0.0
Ar 0.866629 4.9833 0.0
Ar 10.4217 3.46185 0.0
Ar 1.44539 5.81338 0.0
Ar 2.50215 6.13696 0.0
Ar 9.21621 6.5086 0.0
Ar 1.34759 7.04952 0.0
36
step 2000
Ar 11.2721 0.236203 0.0
Ar 3.61364 11.0207 0.0
Ar 4.56346 4.37756 0.0
Ar 11.8856 4.52001 0.0
Ar 2.34515 7.54861 0.0
Ar 10.1724 11.2816 0.0
Ar 3.95711 2.57996 0.0
Ar 5.59775 5.27211 0.0
Ar 4.64946 3.35853 0.0
Ar 7.36614 5.81935 0.0
Ar 1.26874 8.84091 0.0
Ar 10.1468 7.90336 0.0
Ar 11.1215 9.41252 0.0
Ar 7.75363 8.45341 0.0
Ar 6.29745 4.38292 0.0
Ar 1.38631 10.4637 0.0
Ar 9.84703 9.86247 0.0
Ar 11.0518 10.7766 0.0
Ar 0.189812 11.0411 0.0
Ar 4.9303 9.65209 0.0
Ar 8.51685 9.57011 0.0
Ar 0.536223 9.77436 0.0
Ar 11.2009 6.96207 0.0
Ar 8.37717 0.551672 0.0
Ar 8.34817 5.1379 0.0
Ar 8.58396 1.71057 0.0
Ar 10.7293 2.264 0.0
Ar 9.49773 0.626816 0.0
Ar 6.12762 8.64856 0.0
Ar 0.359562 1.90321 0.0
Ar 0.772863 5.03019 0.0
Ar 10.5446 3.50907 0.0
Ar 1.61575 5.85791 0.0
Ar 2.57829 6.13451 0.0
Ar 9.26093 6.49596 0.0
Ar 1.53391 7.01932 0.0
36
step 2020
Ar 11.25 0.132961 0.0
Ar 3.58525 11.0575 0.0
Ar 4.62536 4.45204 0.0
Ar 11.7953 4.53734 0.0
Ar 2.38156 7.72828 0.0
Ar 10.2269 11.3287 0.0
Ar 3.96792 2.48723 0.0
Ar 5.60159 5.14235 0.0
Ar 4.64794 3.3637 0.0
Ar 7.48245 5.82009 0.0
Ar 1.29269 8.70061 0.0
Ar 10.4697 8.01805 0.0
Ar 10.926 9.35163 0.0
Ar 7.6345 8.52005 0.0
Ar 6.23833 4.36586 0.0
Ar 1.32666 10.5437 0.0
Ar 9.76282 9.91462 0.0
Ar 11.1527 10.7184 0.0
Ar 0.120475 11.0745 0.0
Ar 4.69587 9.49484 0.0
Ar 8.59208 9.53442 0.0
Ar 0.528742 9.75967 0.0
Ar 11.2653 6.90047 0.0
Ar 8.24259 0.570801 0.0
Ar 8.26077 5.10091 0.0
Ar 8.55216 1.60231 0.0
Ar 10.743 2.31014 0.0
Ar 9.38973 0.78175 0.0
Ar 6.12969 8.69142 0.0
Ar 0.386257 1.924 0.0
Ar 0.775002 5.13529 0.0
Ar 10.6762 3.53616 0.0
Ar 1.59824 5.8481 0.0
Ar 2.8187 6.20968 0.0
Ar 9.30521 6.48335 0.0
Ar 1.55234 6.85909 0.0
36
step 2040
Ar 11.2207 11.9899 0.0
Ar 3.55761 11.0921 0.0
Ar 4.69085 4.57478 0.0
Ar 11.6925 4.54513 0.0
Ar 2.42228 7.91377 0.0
Ar 10.2635 11.3985 0.0
Ar 3.97068 2.38555 0.0
Ar 5.51757 5.12006 0.0
Ar 4.66062 3.33279 0.0
Ar 7.55476 5.86216 0.0
Ar 1.31453 8.5693 0.0
Ar 10.8047 8.13301 0.0
Ar 10.7154 9.30641 0.0
Ar 7.5158 8.60024 0.0
Ar 6.26158 4.24113 0.0
Ar 1.24884 10.6313 0.0
Ar 9.68975 9.96433 0.0
Ar 11.1909 10.5972 0.0
Ar 0.151165 11.1308 0.0
Ar 4.46577 9.33623 0.0
Ar 8.67743 9.49291 0.0
Ar 0.515077 9.74473 0.0
Ar 11.3187 6.85263 0.0
Ar 8.11118 0.554653 0.0
Ar 8.21794 5.02428 0.0
Ar 8.52126 1.54189 0.0
Ar 10.7595 2.37641 0.0
Ar 9.28482 0.919248 0.0
Ar 6.13711 8.73635 0.0
Ar 0.40638 1.94547 0.0
Ar 0.745991 5.21844 0.0
Ar 10.8182 3.54757 0.0
Ar 1.63529 5.73463 0.0
Ar 3.03114 6.29629 0.0
Ar 9.34778 6.46857 0.0
Ar 1.56258 6.82117 0.0
36
step 2060
Ar 11.2291 11.8252 0.0
Ar 3.53031 11.1249 0.0
Ar 4.61703 4.57836 0.0
Ar 11.5967 4.55071 0.0
Ar 2.43532 8.09112 0.0
Ar 10.2913 11.4367 0.0
Ar 3.98319 2.29779 0.0
Ar 5.57341 5.19907 0.0
Ar 4.66766 3.31336 0.0
Ar 7.59249 5.9435 0.0
Ar 1.34643 8.43729 0.0
Ar 11.1446 8.25139 0.0
Ar 10.4953 9.2737 0.0
Ar 7.38989 8.69026 0.0
Ar 6.28296 4.11121 0.0
Ar 1.14864 10.7147 0.0
Ar 9.65179 10.0174 0.0
Ar 11.1732 10.467 0.0
Ar 0.215594 11.1979 0.0
Ar 4.23833 9.17772 0.0
Ar 8.74854 9.43935 0.0
Ar 0.502801 9.74389 0.0
Ar 11.3654 6.8193 0.0
Ar 7.9852 0.503257 0.0
Ar 8.21108 4.90983 0.0
Ar 8.36791 1.63721 0.0
Ar 10.7807 2.45695 0.0
Ar 9.30192 0.933498 0.0
Ar 6.15831 8.78102 0.0
Ar 0.4204 1.96822 0.0
Ar 0.614936 5.24003 0.0
Ar 10.9734 3.55721 0.0
Ar 1.76883 5.62522 0.0
Ar 3.22187 6.38595 0.0
Ar 9.3882 6.45143 0.0
Ar 1.58724 6.84833 0.0
36
step 2080
Ar 11.3349 11.6907 0.0
Ar 3.50302 11.1563 0.0
Ar 4.52023 4.5385 0.0
Ar 11.5142 4.56187 0.0
Ar 2.44217 8.25972 0.0
Ar 10.2219 11.4055 0.0
Ar 4.00884 2.22989 0.0
Ar 5.6697 5.27768 0.0
Ar 4.66466 3.30118 0.0
Ar 7.64001 6.00957 0.0
Ar 1.37526 8.30348 0.0
Ar 11.4778 8.3755 0.0
Ar 10.2929 9.23894 0.0
Ar 7.25407 8.7864 0.0
Ar 6.28611 4.00018 0.0
Ar 1.10521 10.7477 0.0
Ar 9.6549 10.1032 0.0
Ar 11.1535 10.3597 0.0
Ar 0.204822 11.2741 0.0
Ar 4.01122 9.01936 0.0
Ar 8.78647 9.36221 0.0
Ar 0.489753 9.76443 0.0
Ar 11.4101 6.79719 0.0
Ar 7.88116 0.473031 0.0
Ar 8.19582 4.81167 0.0
Ar 8.19999 1.72502 0.0
Ar 10.8052 2.53328 0.0
Ar 9.31545 0.931396 0.0
Ar 6.19568 8.82475 0.0
Ar 0.428522 1.99292 0.0
Ar 0.47489 5.25404 0.0
Ar 11.137 3.57687 0.0
Ar 1.89444 5.53695 0.0
Ar 3.40042 6.47606 0.0
Ar 9.42634 6.4322 0.0
Ar 1.62336 6.86843 0.0
36
step 2100
Ar 11.2164 11.6451 0.0
Ar 3.47548 11.1866 0.0
Ar 4.44403 4.48407 0.0
Ar 11.4635 4.63719 0.0
Ar 2.48644 8.42116 0.0
Ar 10.151 11.3464 0.0
Ar 4.04704 2.1829 0.0
Ar 5.75844 5.33182 0.0
Ar 4.65075 3.2948 0.0
Ar 7.69824 6.0564 0.0
Ar 1.36476 8.1626 0.0
Ar 11.8057 8.50578 0.0
Ar 10.119 9.18504 0.0
Ar 7.2029 8.88357 0.0
Ar 6.2769 3.90356 0.0
Ar 1.15796 10.706 0.0
Ar 9.65356 10.2275 0.0
Ar 11.1321 10.2743 0.0
Ar 0.303364 11.2846 0.0
Ar 3.77994 8.8595 0.0
Ar 8.83238 9.28545 0.0
Ar 0.469236 9.80427 0.0
Ar 11.4561 6.78039 0.0
Ar 7.79381 0.46828 0.0
Ar 8.17124 4.73343 0.0
Ar 8.04148 1.78014 0.0
Ar 10.8275 2.58824 0.0
Ar 9.30612 0.933476 0.0
Ar 6.15386 8.87006 0.0
Ar 0.430715 2.02045 0.0
Ar 0.334545 5.2647 0.0
Ar 11.2903 3.56139 0.0
Ar 2.00559 5.46654 0.0
Ar 3.57165 6.56566 0.0
Ar 9.462 6.41123 0.0
Ar 1.666 6.88745 0.0
36
step 2120
Ar 11.074 11.6006 0.0
Ar 3.44746 11.2163 0.0
Ar 4.38138 4.4125 0.0
Ar 11.3776 4.71341 0.0
Ar 2.53588 8.57911 0.0
Ar 10.0699 11.2639 0.0
Ar 4.09667 2.1574 0.0
Ar 5.84419 5.37052 0.0
Ar 4.62652 3.29143 0.0
Ar 7.76439 6.08784 0.0
Ar 1.35399 8.00881 0.0
Ar 0.142803 8.64609 0.0
Ar 9.93943 9.14557 0.0
Ar 7.24516 8.98193 0.0
Ar 6.25859 3.81685 0.0
Ar 1.28769 10.6039 0.0
Ar 9.65603 10.3417 0.0
Ar 11.1063 10.2074 0.0
Ar 0.348282 11.3147 0.0
Ar 3.53693 8.69515 0.0
Ar 8.90499 9.22333 0.0
Ar 0.431777 9.85208 0.0
Ar 11.5049 6.763 0.0
Ar 7.71851 0.486415 0.0
Ar 8.14018 4.67124 0.0
Ar 7.88821 1.80876 0.0
Ar 10.8404 2.61195 0.0
Ar 9.28236 0.93613 0.0
Ar 6.02376 8.91558 0.0
Ar 0.426387 2.05176 0.0
Ar 0.240488 5.30967 0.0
Ar 11.4524 3.54446 0.0
Ar 2.10956 5.40995 0.0
Ar 3.73841 6.65511 0.0
Ar 9.49489 6.38884 0.0
Ar 1.70939 6.91659 0.0
36
step 2140
Ar 11.0139 11.5523 0.0
Ar 3.41865 11.2455 0.0
Ar 4.3258 4.33406 0.0
Ar 11.2328 4.73256 0.0
Ar 2.37082 8.71778 0.0
Ar 9.99611 11.2952 0.0
Ar 4.15647 2.15426 0.0
Ar 5.92939 5.39938 0.0
Ar 4.59553 3.27721 0.0
Ar 7.83684 6.10666 0.0
Ar 1.34403 7.87738 0.0
Ar 0.498607 8.79747 0.0
Ar 9.90415 9.12507 0.0
Ar 7.27668 9.08013 0.0
Ar 6.23283 3.73723 0.0
Ar 1.40378 10.5 0.0
Ar 9.60557 10.2761 0.0
Ar 11.0762 10.1587 0.0
Ar 0.373315 11.3272 0.0
Ar 3.48645 8.53635 0.0
Ar 8.84173 9.18792 0.0
Ar 0.378627 9.90369 0.0
Ar 11.5576 6.73983 0.0
Ar 7.65271 0.527179 0.0
Ar 8.10447 4.62222 0.0
Ar 7.73803 1.81315 0.0
Ar 10.8559 2.62857 0.0
Ar 9.24853 0.937561 0.0
Ar 5.91012 8.96214 0.0
Ar 0.414453 2.08835 0.0
Ar 0.206397 5.40219 0.0
Ar 11.6186 3.54732 0.0
Ar 2.20967 5.36306 0.0
Ar 3.90232 6.74523 0.0
Ar 9.52454 6.3651 0.0
Ar 1.75847 6.9359 0.0
36
step 2160
Ar 11.0357 11.499 0.0
Ar 3.38881 11.2743 0.0
Ar 4.26801 4.27631 0.0
Ar 11.1042 4.73754 0.0
Ar 2.09716 8.8427 0.0
Ar 9.89039 11.3698 0.0
Ar 4.22399 2.17134 0.0
Ar 6.01526 5.4218 0.0
Ar 4.56742 3.22514 0.0
Ar 7.91498 6.11462 0.0
Ar 1.29774 7.85897 0.0
Ar 0.87451 8.93626 0.0
Ar 9.98658 9.12103 0.0
Ar 7.29931 9.17738 0.0
Ar 6.20069 3.66251 0.0
Ar 1.48654 10.3959 0.0
Ar 9.53353 10.1121 0.0
Ar 11.0451 10.1258 0.0
Ar 0.392618 11.3108 0.0
Ar 3.52162 8.37375 0.0
Ar 8.66714 9.17726 0.0
Ar 0.321584 9.98264 0.0
Ar 11.6163 6.705 0.0
Ar 7.59477 0.592301 0.0
Ar 8.06533 4.58455 0.0
Ar 7.59009 1.79282 0.0
Ar 10.89 2.65873 0.0
Ar 9.20694 0.936239 0.0
Ar 5.8145 9.01017 0.0
Ar 0.393338 2.13264 0.0
Ar 0.159003 5.49783 0.0
Ar 11.7688 3.55353 0.0
Ar 2.30733 5.32343 0.0
Ar 4.06382 6.83765 0.0
Ar 9.55032 6.33979 0.0
Ar 1.84657 6.8682 0.0
36
step 2180
Ar 11.0716 11.4231 0.0
Ar 3.35779 11.3026 0.0
Ar 4.20654 4.23807 0.0
Ar 11.0023 4.73955 0.0
Ar 2.05196 8.91934 0.0
Ar 9.78509 11.4245 0.0
Ar 4.28623 2.17048 0.0
Ar 6.10245 5.43984 0.0
Ar 4.55587 3.17387 0.0
Ar 7.999 6.11288 0.0
Ar 1.2542 7.88476 0.0
Ar 1.01687 9.11344 0.0
Ar 10.0735 9.10503 0.0
Ar 7.32871 9.27334 0.0
Ar 6.16251 3.59092 0.0
Ar 1.53482 10.2791 0.0
Ar 9.45026 9.97416 0.0
Ar 11.0162 10.1056 0.0
Ar 0.40127 11.2635 0.0
Ar 3.54646 8.20735 0.0
Ar 8.50832 9.18309 0.0
Ar 0.272937 10.0798 0.0
Ar 11.6838 6.65109 0.0
Ar 7.54339 0.676974 0.0
Ar 8.02355 4.55716 0.0
Ar 7.44458 1.75325 0.0
Ar 10.9482 2.70409 0.0
Ar 9.15892 0.930318 0.0
Ar 5.73032 9.05937 0.0
Ar 0.360636 2.18848 0.0
Ar 0.0870723 5.59765 0.0
Ar 11.8975 3.55255 0.0
Ar 2.403 5.29116 0.0
Ar 4.22176 6.9362 0.0
Ar 9.57107 6.31267 0.0
Ar 1.94133 6.78467 0.0
36
step 2200
Ar 11.1062 11.32 0.0
Ar 3.32561 11.3303 0.0
Ar 4.14437 4.20408 0.0
Ar 10.9215 4.7435 0.0
Ar 2.40241 8.92981 0.0
Ar 9.69872 11.4703 0.0
Ar 4.32813 2.0949 0.0
Ar 6.19142 5.45471 0.0
Ar 4.57295 3.19567 0.0
Ar 8.0899 6.10226 0.0
Ar 1.22948 7.928 0.0
Ar 0.758906 9.35234 0.0
Ar 10.1863 9.06951 0.0
Ar 7.35797 9.36883 0.0
Ar 6.11778 3.52086 0.0
Ar 1.54896 10.1369 0.0
Ar 9.33804 9.86849 0.0
Ar 10.9922 10.0969 0.0
Ar 0.395195 11.1972 0.0
Ar 3.57114 8.0307 0.0
Ar 8.37038 9.20336 0.0
Ar 0.226135 10.189 0.0
Ar 11.7432 6.62485 0.0
Ar 7.50423 0.722291 0.0
Ar 7.97972 4.53951 0.0
Ar 7.29549 1.75369 0.0
Ar 11.035 2.76263 0.0
Ar 9.10492 0.917804 0.0
Ar 5.65311 9.10931 0.0
Ar 0.312296 2.26231 0.0
Ar 0.0108859 5.65709 0.0
Ar 0.00613107 3.53337 0.0
Ar 2.49683 5.2672 0.0
Ar 4.37192 7.04702 0.0
Ar 9.58498 6.28331 0.0
Ar 2.02764 6.71208 0.0
36
step 2220
Ar 11.1515 11.1877 0.0
Ar 3.29249 11.3572 0.0
Ar 4.07557 4.18504 0.0
Ar 10.8575 4.75275 0.0
Ar 2.7403 8.93658 0.0
Ar 9.62508 11.5138 0.0
Ar 4.36842 2.0136 0.0
Ar 6.28278 5.46711 0.0
Ar 4.60728 3.21145 0.0
Ar 8.18988 6.08351 0.0
Ar 1.2154 7.97858 0.0
Ar 0.613022 9.40888 0.0
Ar 10.3009 9.05945 0.0
Ar 7.28212 9.48177 0.0
Ar 6.06454 3.45085 0.0
Ar 1.54791 9.99172 0.0
Ar 9.23226 9.75712 0.0
Ar 10.9757 10.0963 0.0
Ar 0.405977 11.2863 0.0
Ar 3.59827 7.84455 0.0
Ar 8.34656 9.21209 0.0
Ar 0.0279932 10.3088 0.0
Ar 11.7644 6.73437 0.0
Ar 7.48422 0.70429 0.0
Ar 7.93426 4.53146 0.0
Ar 7.1358 1.8186 0.0
Ar 11.1569 2.83073 0.0
Ar 9.04523 0.896709 0.0
Ar 5.58021 9.15939 0.0
Ar 0.241956 2.36336 0.0
Ar 11.9619 5.56956 0.0
Ar 0.0966175 3.48607 0.0
Ar 2.58893 5.2524 0.0
Ar 4.50851 7.17431 0.0
Ar 9.5893 6.25107 0.0
Ar 2.11023 6.64256 0.0
36
step 2240
Ar 11.2012 11.0889 0.0
Ar 3.25858 11.3834 0.0
Ar 4.00221 4.17338 0.0
Ar 10.8106 4.77023 0.0
Ar 3.07821 8.93313 0.0
Ar 9.55633 11.5611 0.0
Ar 4.41363 1.95568 0.0
Ar 6.37758 5.47733 0.0
Ar 4.65314 3.20072 0.0
Ar 8.30301 6.05754 0.0
Ar 1.20415 8.03376 0.0
Ar 0.50482 9.37676 0.0
Ar 10.408 9.08132 0.0
Ar 7.16526 9.60179 0.0
Ar 5.99909 3.37896 0.0
Ar 1.54969 9.85225 0.0
Ar 9.22803 9.68526 0.0
Ar 10.8576 10.0401 0.0
Ar 0.430949 11.4929 0.0
Ar 3.61329 7.66813 0.0
Ar 8.28407 9.16547 0.0
Ar 11.8549 10.3835 0.0
Ar 11.7855 6.84407 0.0
Ar 7.4699 0.695963 0.0
Ar 7.88738 4.53319 0.0
Ar 6.97945 1.876 0.0
Ar 11.2782 2.90417 0.0
Ar 8.98022 0.86431 0.0
Ar 5.51118 9.20935 0.0
Ar 0.173361 2.44222 0.0
Ar 11.8995 5.47042 0.0
Ar 0.182722 3.46214 0.0
Ar 2.67949 5.24796 0.0
Ar 4.64493 7.30459 0.0
Ar 9.57957 6.21497 0.0
Ar 2.19412 6.5692 0.0
36
step 2260
Ar 11.1079 11.1862 0.0
Ar 3.22412 11.4086 0.0
Ar 3.93493 4.15081 0.0
Ar 10.7837 4.79815 0.0
Ar 3.41912 8.91449 0.0
Ar 9.48698 11.6173 0.0
Ar 4.46416 1.92255 0.0
Ar 6.47719 5.48479 0.0
Ar 4.70454 3.18235 0.0
Ar 8.43371 6.02555 0.0
Ar 1.19032 8.09687 0.0
Ar 0.398078 9.35319 0.0
Ar 10.4598 9.00768 0.0
Ar 7.06347 9.71303 0.0
Ar 5.91576 3.30263 0.0
Ar 1.53998 9.70714 0.0
Ar 9.29789 9.63643 0.0
Ar 10.6706 10.0447 0.0
Ar 0.426682 11.6722 0.0
Ar 3.60568 7.51169 0.0
Ar 8.1548 9.09771 0.0
Ar 11.9632 10.3175 0.0
Ar 11.8102 6.937 0.0
Ar 7.45814 0.709509 0.0
Ar 7.83892 4.54517 0.0
Ar 6.83034 1.91525 0.0
Ar 11.2596 3.01711 0.0
Ar 8.90998 0.816992 0.0
Ar 5.44607 9.25898 0.0
Ar 0.213607 2.3625 0.0
Ar 11.8167 5.37553 0.0
Ar 0.297014 3.56327 0.0
Ar 2.7685 5.2556 0.0
Ar 4.79382 7.43106 0.0
Ar 9.55078 6.17391 0.0
Ar 2.28384 6.48648 0.0
36
step 2280
Ar 11.0116 11.2738 0.0
Ar 3.1893 11.4333 0.0
Ar 3.87783 4.11413 0.0
Ar 10.7686 4.83116 0.0
Ar 3.76319 8.88016 0.0
Ar 9.41471 11.6875 0.0
Ar 4.5208 1.91422 0.0
Ar 6.58358 5.48817 0.0
Ar 4.75482 3.16111 0.0
Ar 8.5403 5.98281 0.0
Ar 1.17044 8.17349 0.0
Ar 0.335349 9.27038 0.0
Ar 10.4627 8.83674 0.0
Ar 6.97763 9.81112 0.0
Ar 5.81685 3.21952 0.0
Ar 1.5052 9.55141 0.0
Ar 9.38246 9.57587 0.0
Ar 10.5306 10.1799 0.0
Ar 0.401581 11.8296 0.0
Ar 3.60738 7.3662 0.0
Ar 8.02335 9.04977 0.0
Ar 0.044779 10.3099 0.0
Ar 11.837 7.0226 0.0
Ar 7.45193 0.740696 0.0
Ar 7.78788 4.56834 0.0
Ar 6.68625 1.94262 0.0
Ar 11.2408 3.14194 0.0
Ar 8.83448 0.750438 0.0
Ar 5.38398 9.30765 0.0
Ar 0.263914 2.28718 0.0
Ar 11.7226 5.28047 0.0
Ar 0.39827 3.65566 0.0
Ar 2.85543 5.27803 0.0
Ar 4.92552 7.56139 0.0
Ar 9.54421 6.13301 0.0
Ar 2.38464 6.38974 0.0
36
step 2300
Ar 10.9234 11.3357 0.0
Ar 3.15437 11.4579 0.0
Ar 3.83107 4.06659 0.0
Ar 10.6918 4.83477 0.0
Ar 4.11555 8.83373 0.0
Ar 9.34094 11.769 0.0
Ar 4.58486 1.93213 0.0
Ar 6.70046 5.48462 0.0
Ar 4.72434 3.13084 0.0
Ar 8.52486 5.91503 0.0
Ar 1.14045 8.27667 0.0
Ar 0.315149 9.13621 0.0
Ar 10.4517 8.69619 0.0
Ar 6.90493 9.89407 0.0
Ar 5.78268 3.12929 0.0
Ar 1.44035 9.37814 0.0
Ar 9.49147 9.50979 0.0
Ar 10.3901 10.31 0.0
Ar 0.363141 11.9732 0.0
Ar 3.62249 7.22743 0.0
Ar 7.88682 9.02025 0.0
Ar 0.0960408 10.3596 0.0
Ar 11.8658 7.10701 0.0
Ar 7.45609 0.784439 0.0
Ar 7.73168 4.6056 0.0
Ar 6.54333 1.96555 0.0
Ar 11.258 3.26862 0.0
Ar 8.74948 0.667911 0.0
Ar 5.32008 9.35258 0.0
Ar 0.300401 2.24266 0.0
Ar 11.6913 5.21303 0.0
Ar 0.473364 3.72526 0.0
Ar 2.94211 5.31044 0.0
Ar 5.03501 7.69626 0.0
Ar 9.65765 6.10606 0.0
Ar 2.49869 6.28335 0.0
36
step 2320
Ar 10.8383 11.3836 0.0
Ar 3.11944 11.4824 0.0
Ar 3.7951 4.00983 0.0
Ar 10.5628 4.81701 0.0
Ar 4.48368 8.77294 0.0
Ar 9.30053 11.8099 0.0
Ar 4.6573 1.9754 0.0
Ar 6.83459 5.46918 0.0
Ar 4.61016 3.09484 0.0
Ar 8.49463 5.83656 0.0
Ar 1.08425 8.32462 0.0
Ar 0.301744 9.01541 0.0
Ar 10.4262 8.57901 0.0
Ar 6.84299 9.96066 0.0
Ar 5.81991 3.02238 0.0
Ar 1.37962 9.26507 0.0
Ar 9.62893 9.44232 0.0
Ar 10.2437 10.4325 0.0
Ar 0.315512 0.107352 0.0
Ar 3.64021 7.08791 0.0
Ar 7.73995 9.00705 0.0
Ar 0.143014 10.3988 0.0
Ar 11.8971 7.19413 0.0
Ar 7.47596 0.835052 0.0
Ar 7.66644 4.66417 0.0
Ar 6.39514 1.99426 0.0
Ar 11.3044 3.40142 0.0
Ar 8.61701 0.622948 0.0
Ar 5.25199 9.39129 0.0
Ar 0.328554 2.21893 0.0
Ar 11.7124 5.16227 0.0
Ar 0.522034 3.78065 0.0
Ar 3.05857 5.28627 0.0
Ar 5.12506 7.84425 0.0
Ar 9.78326 6.07407 0.0
Ar 2.59956 6.23549 0.0
36
step 2340
Ar 10.7565 11.4314 0.0
Ar 3.08451 11.507 0.0
Ar 3.76867 3.94654 0.0
Ar 10.4475 4.80772 0.0
Ar 4.63507 8.66872 0.0
Ar 9.30442 11.8003 0.0
Ar 4.74262 2.0227 0.0
Ar 6.96422 5.46673 0.0
Ar 4.49744 3.07671 0.0
Ar 8.47159 5.7483 0.0
Ar 1.00558 8.12592 0.0
Ar 0.235313 8.94935 0.0
Ar 10.3935 8.47537 0.0
Ar 6.79043 10.0092 0.0
Ar 5.83172 2.91616 0.0
Ar 1.37866 9.35743 0.0
Ar 9.78432 9.37967 0.0
Ar 10.0874 10.5423 0.0
Ar 0.261366 0.234788 0.0
Ar 3.64868 6.93891 0.0
Ar 7.58016 9.01052 0.0
Ar 0.188975 10.425 0.0
Ar 11.9328 7.28871 0.0
Ar 7.48632 0.893474 0.0
Ar 7.6196 4.72284 0.0
Ar 6.24795 2.01237 0.0
Ar 11.3763 3.54487 0.0
Ar 8.45561 0.618775 0.0
Ar 5.33632 9.55709 0.0
Ar 0.351737 2.20962 0.0
Ar 11.7194 5.09841 0.0
Ar 0.542525 3.82761 0.0
Ar 3.21154 5.19195 0.0
Ar 5.27839 7.90514 0.0
Ar 9.89624 6.02713 0.0
Ar 2.68657 6.26129 0.0
36
step 2360
Ar 10.6737 11.4848 0.0
Ar 3.04959 11.5315 0.0
Ar 3.73542 3.89993 0.0
Ar 10.3505 4.8147 0.0
Ar 4.59029 8.7252 0.0
Ar 9.3156 11.7863 0.0
Ar 4.8573 2.05564 0.0
Ar 6.99323 5.59123 0.0
Ar 4.40091 3.08058 0.0
Ar 8.44051 5.64476 0.0
Ar 0.922024 7.92129 0.0
Ar 0.177717 8.90158 0.0
Ar 10.3755 8.35432 0.0
Ar 6.74157 10.0362 0.0
Ar 5.74399 2.94666 0.0
Ar 1.3499 9.43912 0.0
Ar 9.93389 9.35667 0.0
Ar 9.9183 10.6371 0.0
Ar 0.202501 0.358167 0.0
Ar 3.65782 6.78692 0.0
Ar 7.40596 9.03253 0.0
Ar 0.236681 10.4389 0.0
Ar 11.9808 7.39954 0.0
Ar 7.36767 0.991868 0.0
Ar 7.69612 4.67207 0.0
Ar 6.15896 1.88236 0.0
Ar 11.4667 3.7034 0.0
Ar 8.42911 0.569372 0.0
Ar 5.47047 9.75983 0.0
Ar 0.371812 2.21055 0.0
Ar 11.7078 5.01334 0.0
Ar 0.537493 3.87259 0.0
Ar 3.3669 5.09641 0.0
Ar 5.58636 7.76849 0.0
Ar 10.0054 5.95898 0.0
Ar 2.78144 6.27699 0.0
36
step 2380
Ar 10.5754 11.5374 0.0
Ar 3.01466 11.5561 0.0
Ar 3.66305 3.91445 0.0
Ar 10.2724 4.83209 0.0
Ar 4.56613 8.78623 0.0
Ar 9.33779 11.7639 0.0
Ar 5.00627 2.09751 0.0
Ar 7.0262 5.72728 0.0
Ar 4.35861 3.04371 0.0
Ar 8.39245 5.52612 0.0
Ar 0.922577 7.7844 0.0
Ar 0.150038 8.84383 0.0
Ar 10.3707 8.21722 0.0
Ar 6.6853 10.0424 0.0
Ar 5.6114 2.98722 0.0
Ar 1.28861 9.50981 0.0
Ar 10.076 9.37236 0.0
Ar 9.74447 10.7316 0.0
Ar 0.140241 0.479991 0.0
Ar 3.77651 6.69362 0.0
Ar 7.21846 9.07133 0.0
Ar 0.289929 10.4388 0.0
Ar 11.9328 7.48156 0.0
Ar 7.22279 1.1015 0.0
Ar 7.79485 4.62603 0.0
Ar 6.0685 1.72712 0.0
Ar 11.5168 3.87583 0.0
Ar 8.43498 0.501742 0.0
Ar 5.61282 9.94978 0.0
Ar 0.389838 2.21833 0.0
Ar 11.6828 4.89799 0.0
Ar 0.561128 3.92934 0.0
Ar 3.52022 5.00362 0.0
Ar 5.88495 7.64244 0.0
Ar 10.1136 5.87534 0.0
Ar 2.77669 6.21204 0.0
36
step 2400
Ar 10.4496 11.5844 0.0
Ar 2.97973 11.5807 0.0
Ar 3.58449 3.90902 0.0
Ar 10.2231 4.78092 0.0
Ar 4.55234 8.85031 0.0
Ar 9.35851 11.7808 0.0
Ar 5.10695 2.10157 0.0
Ar 7.08747 5.84539 0.0
Ar 4.35304 2.98767 0.0
Ar 8.36031 5.45476 0.0
Ar 1.04446 7.71996 0.0
Ar 0.147741 8.76939 0.0
Ar 10.3692 8.09558 0.0
Ar 6.69835 10.0671 0.0
Ar 5.49211 3.06575 0.0
Ar 1.19385 9.57779 0.0
Ar 10.2201 9.38776 0.0
Ar 9.59337 10.7874 0.0
Ar 0.0758649 0.602865 0.0
Ar 3.92723 6.61351 0.0
Ar 7.03455 9.09239 0.0
Ar 0.354296 10.4202 0.0
Ar 11.75 7.53224 0.0
Ar 7.07626 1.21283 0.0
Ar 7.85523 4.55178 0.0
Ar 6.00095 1.57328 0.0
Ar 11.4601 3.88338 0.0
Ar 8.43778 0.430926 0.0
Ar 5.6742 10.1293 0.0
Ar 0.406332 2.22931 0.0
Ar 11.6823 4.93059 0.0
Ar 0.641677 4.0022 0.0
Ar 3.66624 4.95737 0.0
Ar 6.18077 7.5211 0.0
Ar 10.2134 5.85423 0.0
Ar 2.74804 6.11624 0.0
36
step 2420
Ar 10.3314 11.6146 0.0
Ar 2.9448 11.6052 0.0
Ar 3.51845 3.82518 0.0
Ar 10.1958 4.67592 0.0
Ar 4.54368 8.91719 0.0
Ar 9.34156 11.9059 0.0
Ar 5.08905 2.06778 0.0
Ar 7.17325 5.95002 0.0
Ar 4.35165 2.9363 0.0
Ar 8.36071 5.47208 0.0
Ar 1.13893 7.6696 0.0
Ar 0.16378 8.67895 0.0
Ar 10.3789 7.99114 0.0
Ar 6.81154 10.1727 0.0
Ar 5.40801 3.22496 0.0
Ar 1.07854 9.63215 0.0
Ar 10.3652 9.39136 0.0
Ar 9.48627 10.7394 0.0
Ar 0.0108337 0.729689 0.0
Ar 4.05786 6.51981 0.0
Ar 6.87364 9.02828 0.0
Ar 0.419922 10.3941 0.0
Ar 11.5782 7.61068 0.0
Ar 6.96654 1.31656 0.0
Ar 7.86221 4.40474 0.0
Ar 5.96861 1.39295 0.0
Ar 11.3823 3.77044 0.0
Ar 8.42546 0.367377 0.0
Ar 5.60651 10.3053 0.0
Ar 0.420751 2.24017 0.0
Ar 11.703 5.07689 0.0
Ar 0.697081 4.08367 0.0
Ar 3.80792 4.98817 0.0
Ar 6.47814 7.40158 0.0
Ar 10.3127 5.88051 0.0
Ar 2.74684 6.01861 0.0
36
step 2440
Ar 10.3008 11.5978 0.0
Ar 2.90988 11.6298 0.0
Ar 3.47421 3.73678 0.0
Ar 10.1869 4.58472 0.0
Ar 4.53861 8.98703 0.0
Ar 9.32392 0.0074986 0.0
Ar 5.05556 2.06299 0.0
Ar 7.27927 6.04829 0.0
Ar 4.32468 2.89276 0.0
Ar 8.33994 5.4894 0.0
Ar 1.21245 7.6324 0.0
Ar 0.191814 8.57656 0.0
Ar 10.4046 7.89829 0.0
Ar 6.90765 10.2863 0.0
Ar 5.3343 3.37332 0.0
Ar 1.03892 9.56154 0.0
Ar 10.5099 9.38393 0.0
Ar 9.39825 10.7081 0.0
Ar 11.9469 0.86375 0.0
Ar 4.1714 6.41086 0.0
Ar 6.71208 8.95486 0.0
Ar 0.393055 10.4715 0.0
Ar 11.4118 7.71435 0.0
Ar 7.00387 1.40325 0.0
Ar 7.87065 4.27138 0.0
Ar 5.80549 1.22045 0.0
Ar 11.3196 3.6845 0.0
Ar 8.30877 0.35389 0.0
Ar 5.55189 10.4735 0.0
Ar 0.431446 2.24767 0.0
Ar 11.7154 5.19564 0.0
Ar 0.721351 4.16965 0.0
Ar 3.93892 5.02295 0.0
Ar 6.77997 7.28025 0.0
Ar 10.4158 5.886 0.0
Ar 2.77001 5.91814 0.0
36
step 2460
Ar 10.3159 11.5406 0.0
Ar 2.87495 11.6543 0.0
Ar 3.45372 3.65076 0.0
Ar 10.1969 4.50856 0.0
Ar 4.53669 9.05989 0.0
Ar 9.2995 0.0897436 0.0
Ar 5.03563 2.06774 0.0
Ar 7.3975 6.15025 0.0
Ar 4.27413 2.87069 0.0
Ar 8.29598 5.4955 0.0
Ar 1.26937 7.60897 0.0
Ar 0.234589 8.47227 0.0
Ar 10.3019 7.83497 0.0
Ar 6.98313 10.3836 0.0
Ar 5.2562 3.50302 0.0
Ar 1.00932 9.44078 0.0
Ar 10.6555 9.36588 0.0
Ar 9.32755 10.7131 0.0
Ar 11.8864 1.00905 0.0
Ar 4.27047 6.2815 0.0
Ar 6.55054 8.89677 0.0
Ar 0.339527 10.577 0.0
Ar 11.3874 7.81129 0.0
Ar 7.04077 1.48382 0.0
Ar 7.88661 4.16116 0.0
Ar 5.64314 1.05549 0.0
Ar 11.2621 3.61856 0.0
Ar 8.13561 0.363352 0.0
Ar 5.51518 10.6341 0.0
Ar 0.435886 2.24754 0.0
Ar 11.7178 5.29821 0.0
Ar 0.723024 4.25997 0.0
Ar 4.05721 5.06255 0.0
Ar 7.08831 7.14857 0.0
Ar 10.5267 5.86659 0.0
Ar 2.81493 5.81377 0.0
36
step 2480
Ar 10.3078 11.4726 0.0
Ar 2.84002 11.6789 0.0
Ar 3.44088 3.57435 0.0
Ar 10.2273 4.44046 0.0
Ar 4.53811 9.13518 0.0
Ar 9.26566 0.15305 0.0
Ar 5.03399 2.064 0.0
Ar 7.53431 6.12642 0.0
Ar 4.23135 2.86419 0.0
Ar 8.26622 5.46985 0.0
Ar 1.30825 7.6013 0.0
Ar 0.337907 8.40032 0.0
Ar 10.1289 7.78619 0.0
Ar 7.04478 10.4741 0.0
Ar 5.1579 3.61178 0.0
Ar 0.954961 9.31619 0.0
Ar 10.8041 9.33668 0.0
Ar 9.27448 10.7505 0.0
Ar 11.8331 1.17088 0.0
Ar 4.35677 6.13283 0.0
Ar 6.38995 8.84666 0.0
Ar 0.294175 10.6639 0.0
Ar 11.4017 7.87937 0.0
Ar 7.06918 1.55452 0.0
Ar 7.90788 4.069 0.0
Ar 5.4844 0.910767 0.0
Ar 11.202 3.56958 0.0
Ar 7.974 0.373443 0.0
Ar 5.48987 10.789 0.0
Ar 0.430269 2.23414 0.0
Ar 11.7058 5.39229 0.0
Ar 0.707033 4.35569 0.0
Ar 4.16361 5.11324 0.0
Ar 7.36005 7.15941 0.0
Ar 10.6517 5.82417 0.0
Ar 2.88168 5.70507 0.0
36
step 2500
Ar 10.2625 11.4031 0.0
Ar 2.80509 11.7035 0.0
Ar 3.3997 3.53582 0.0
Ar 10.2805 4.37406 0.0
Ar 4.54362 9.21217 0.0
Ar 9.2302 0.190536 0.0
Ar 5.03987 2.05068 0.0
Ar 7.55388 6.09517 0.0
Ar 4.24349 2.83622 0.0
Ar 8.3821 5.29746 0.0
Ar 1.32736 7.61194 0.0
Ar 0.473951 8.30747 0.0
Ar 9.98034 7.74277 0.0
Ar 7.09787 10.5631 0.0
Ar 5.03569 3.70122 0.0
Ar 0.912779 9.23074 0.0
Ar 10.9582 9.29519 0.0
Ar 9.23991 10.8182 0.0
Ar 11.7877 1.34819 0.0
Ar 4.45517 6.09202 0.0
Ar 6.22877 8.80044 0.0
Ar 0.251799 10.7384 0.0
Ar 11.3559 7.92957 0.0
Ar 7.09846 1.61387 0.0
Ar 7.93338 3.99255 0.0
Ar 5.32197 0.789166 0.0
Ar 11.1335 3.53811 0.0
Ar 7.82677 0.387167 0.0
Ar 5.47205 10.9404 0.0
Ar 0.413945 2.20865 0.0
Ar 11.7157 5.46592 0.0
Ar 0.675428 4.45836 0.0
Ar 4.23353 5.05068 0.0
Ar 7.60008 7.31034 0.0
Ar 10.7561 5.77499 0.0
Ar 2.97258 5.59177 0.0
36
step 2520
Ar 10.1894 11.3391 0.0
Ar 2.77017 11.728 0.0
Ar 3.35105 3.51758 0.0
Ar 10.3507 4.31146 0.0
Ar 4.55477 9.28981 0.0
Ar 9.19716 0.197999 0.0
Ar 5.05338 2.02013 0.0
Ar 7.55039 6.10237 0.0
Ar 4.28289 2.80906 0.0
Ar 8.51776 5.08659 0.0
Ar 1.37812 7.60364 0.0
Ar 0.507377 8.13889 0.0
Ar 9.85097 7.70326 0.0
Ar 7.14592 10.6537 0.0
Ar 4.88969 3.77923 0.0
Ar 0.915624 9.24369 0.0
Ar 11.1206 9.23668 0.0
Ar 9.21542 10.912 0.0
Ar 11.7023 1.47672 0.0
Ar 4.56223 6.13234 0.0
Ar 6.06469 8.75684 0.0
Ar 0.209539 10.8051 0.0
Ar 11.3062 7.99643 0.0
Ar 7.1322 1.65957 0.0
Ar 7.96514 3.93416 0.0
Ar 5.15659 0.68795 0.0
Ar 11.0598 3.51887 0.0
Ar 7.68759 0.408893 0.0
Ar 5.45913 11.091 0.0
Ar 0.435137 2.23544 0.0
Ar 11.8578 5.48285 0.0
Ar 0.627116 4.57175 0.0
Ar 4.27202 4.89746 0.0
Ar 7.8386 7.44404 0.0
Ar 10.7333 5.75466 0.0
Ar 3.08916 5.47267 0.0
36
step 2540
Ar 10.1542 11.3093 0.0
Ar 2.7353 11.7526 0.0
Ar 3.32773 3.49855 0.0
Ar 10.3874 4.30643 0.0
Ar 4.5742 9.36626 0.0
Ar 9.17035 0.170353 0.0
Ar 5.07593 1.96642 0.0
Ar 7.56211 6.11461 0.0
Ar 4.30891 2.8076 0.0
Ar 8.6345 4.86728 0.0
Ar 1.52033 7.5394 0.0
Ar 0.423437 8.03782 0.0
Ar 9.73352 7.66639 0.0
Ar 7.19136 10.7478 0.0
Ar 4.72316 3.85326 0.0
Ar 0.910587 9.24898 0.0
Ar 11.2933 9.1574 0.0
Ar 9.13571 11.0077 0.0
Ar 11.569 1.55286 0.0
Ar 4.65805 6.15032 0.0
Ar 5.89423 8.71676 0.0
Ar 0.166676 10.8654 0.0
Ar 11.2654 8.08306 0.0
Ar 7.17145 1.68847 0.0
Ar 8.00679 3.89651 0.0
Ar 4.99165 0.600911 0.0
Ar 11.0281 3.45641 0.0
Ar 7.55134 0.442197 0.0
Ar 5.44854 11.2459 0.0
Ar 0.501978 2.31825 0.0
Ar 0.00464782 5.496 0.0
Ar 0.574947 4.68167 0.0
Ar 4.29768 4.7562 0.0
Ar 8.07482 7.5603 0.0
Ar 10.7002 5.72574 0.0
Ar 3.23254 5.34492 0.0
36
step 2560
Ar 10.1589 11.3117 0.0
Ar 2.70089 11.7774 0.0
Ar 3.34158 3.47962 0.0
Ar 10.3907 4.3613 0.0
Ar 4.60592 9.43806 0.0
Ar 9.15369 0.122373 0.0
Ar 5.0932 1.90212 0.0
Ar 7.58203 6.13061 0.0
Ar 4.31829 2.80326 0.0
Ar 8.74859 4.64766 0.0
Ar 1.65168 7.4818 0.0
Ar 0.336578 7.95991 0.0
Ar 9.61823 7.63117 0.0
Ar 7.23662 10.8477 0.0
Ar 4.62215 3.7637 0.0
Ar 0.887856 9.23285 0.0
Ar 11.4861 9.12987 0.0
Ar 8.99751 11.0922 0.0
Ar 11.4477 1.64081 0.0
Ar 4.74395 6.1493 0.0
Ar 5.71261 8.68289 0.0
Ar 0.122911 10.9203 0.0
Ar 11.2262 8.11218 0.0
Ar 7.21567 1.69675 0.0
Ar 8.05048 3.86421 0.0
Ar 4.83262 0.518724 0.0
Ar 11.0363 3.34878 0.0
Ar 7.41495 0.489868 0.0
Ar 5.43604 11.4129 0.0
Ar 0.553831 2.39368 0.0
Ar 0.0368495 5.64417 0.0
Ar 0.611243 4.65704 0.0
Ar 4.24369 4.79368 0.0
Ar 8.31461 7.66716 0.0
Ar 10.6849 5.67931 0.0
Ar 3.38502 5.21509 0.0
36
step 2580
Ar 10.1341 11.3258 0.0
Ar 2.66724 11.8024 0.0
Ar 3.39832 3.46375 0.0
Ar 10.402 4.42329 0.0
Ar 4.65445 9.49947 0.0
Ar 9.16376 0.139426 0.0
Ar 5.09507 1.83868 0.0
Ar 7.60629 6.14877 0.0
Ar 4.28041 2.66018 0.0
Ar 8.91123 4.47634 0.0
Ar 1.76568 7.43218 0.0
Ar 0.264768 7.90297 0.0
Ar 9.50458 7.59595 0.0
Ar 7.2847 10.9557 0.0
Ar 4.57508 3.72825 0.0
Ar 0.839966 9.19886 0.0
Ar 11.7177 9.16888 0.0
Ar 8.85399 11.1004 0.0
Ar 11.3421 1.74474 0.0
Ar 4.81998 6.13078 0.0
Ar 5.51463 8.6605 0.0
Ar 0.0777964 10.9702 0.0
Ar 11.1687 8.06564 0.0
Ar 7.26285 1.68381 0.0
Ar 8.05108 3.78547 0.0
Ar 4.68567 0.43437 0.0
Ar 11.0414 3.25029 0.0
Ar 7.27841 0.550905 0.0
Ar 5.41631 11.5971 0.0
Ar 0.58579 2.4604 0.0
Ar 0.0330297 5.81588 0.0
Ar 0.660303 4.60786 0.0
Ar 4.41053 4.79476 0.0
Ar 8.55681 7.77016 0.0
Ar 10.6846 5.6129 0.0
Ar 3.29081 5.20298 0.0
36
step 2600
Ar 10.0715 11.3509 0.0
Ar 2.63479 11.8278 0.0
Ar 3.492 3.44616 0.0
Ar 10.4164 4.48731 0.0
Ar 4.71584 9.55035 0.0
Ar 9.19794 0.182321 0.0
Ar 5.08449 1.77327 0.0
Ar 7.63328 6.16828 0.0
Ar 4.22367 2.48165 0.0
Ar 9.10254 4.32201 0.0
Ar 1.86976 7.3866 0.0
Ar 0.209152 7.87149 0.0
Ar 9.65322 7.50693 0.0
Ar 7.34063 11.0735 0.0
Ar 4.52547 3.70125 0.0
Ar 0.863462 9.149 0.0
Ar 11.8697 9.18116 0.0
Ar 8.71273 11.0718 0.0
Ar 11.2473 1.86667 0.0
Ar 4.8876 6.09329 0.0
Ar 5.30409 8.64944 0.0
Ar 0.0310764 11.0153 0.0
Ar 11.1072 8.03355 0.0
Ar 7.31067 1.66946 0.0
Ar 8.03591 3.69091 0.0
Ar 4.53006 0.371597 0.0
Ar 11.0436 3.15838 0.0
Ar 7.14272 0.604073 0.0
Ar 5.41029 11.773 0.0
Ar 0.600655 2.52286 0.0
Ar 0.018841 5.96982 0.0
Ar 0.698164 4.57353 0.0
Ar 4.61757 4.81505 0.0
Ar 8.54039 7.92502 0.0
Ar 10.6978 5.5296 0.0
Ar 3.15943 5.20669 0.0
36
step 2620
Ar 9.97885 11.3859 0.0
Ar 2.60433 11.8537 0.0
Ar 3.53292 3.39948 0.0
Ar 10.4053 4.49492 0.0
Ar 4.76001 9.6335 0.0
Ar 9.23604 0.193858 0.0
Ar 5.0724 1.69609 0.0
Ar 7.66196 6.18918 0.0
Ar 4.15673 2.34344 0.0
Ar 9.29763 4.16093 0.0
Ar 1.96783 7.34342 0.0
Ar 0.164228 7.86677 0.0
Ar 9.86248 7.40898 0.0
Ar 7.41277 11.202 0.0
Ar 4.54026 3.66305 0.0
Ar 1.0885 9.08147 0.0
Ar 11.8078 9.16627 0.0
Ar 8.57803 11.0654 0.0
Ar 11.1601 2.01147 0.0
Ar 4.94873 6.03307 0.0
Ar 5.11097 8.60673 0.0
Ar 11.9828 11.0561 0.0
Ar 11.0431 8.01429 0.0
Ar 7.36296 1.68394 0.0
Ar 8.03861 3.60611 0.0
Ar 4.34231 0.34535 0.0
Ar 11.0482 3.06004 0.0
Ar 7.00307 0.61762 0.0
Ar 5.44168 11.9252 0.0
Ar 0.599871 2.58396 0.0
Ar 11.9923 6.1125 0.0
Ar 0.7294 4.54625 0.0
Ar 4.8134 4.86327 0.0
Ar 8.4721 8.08969 0.0
Ar 10.7389 5.49278 0.0
Ar 3.04331 5.20329 0.0
36
step 2640
Ar 9.89178 11.3957 0.0
Ar 2.57745 11.8807 0.0
Ar 3.49636 3.3132 0.0
Ar 10.3839 4.43448 0.0
Ar 4.7919 9.74448 0.0
Ar 9.2423 0.207801 0.0
Ar 5.05664 1.60796 0.0
Ar 7.6914 6.21144 0.0
Ar 4.08318 2.24105 0.0
Ar 9.47381 3.98896 0.0
Ar 2.06186 7.30219 0.0
Ar 0.117865 7.88518 0.0
Ar 10.0804 7.32343 0.0
Ar 7.48271 11.3456 0.0
Ar 4.64542 3.65211 0.0
Ar 1.29543 9.00481 0.0
Ar 11.7534 9.11883 0.0
Ar 8.46669 11.0803 0.0
Ar 11.0914 2.04112 0.0
Ar 5.00652 5.95993 0.0
Ar 4.93027 8.5367 0.0
Ar 11.9331 11.094 0.0
Ar 10.9768 7.9995 0.0
Ar 7.41492 1.70097 0.0
Ar 8.05733 3.52727 0.0
Ar 4.16706 0.325632 0.0
Ar 11.0455 3.08863 0.0
Ar 6.86318 0.614785 0.0
Ar 5.46693 0.085449 0.0
Ar 0.583539 2.64562 0.0
Ar 11.9522 6.24842 0.0
Ar 0.756738 4.5214 0.0
Ar 5.00086 4.90085 0.0
Ar 8.41304 8.24843 0.0
Ar 10.8146 5.52667 0.0
Ar 2.93327 5.19639 0.0
36
step 2660
Ar 9.84222 11.3403 0.0
Ar 2.55695 11.9095 0.0
Ar 3.48455 3.21277 0.0
Ar 10.477 4.42508 0.0
Ar 4.82563 9.83712 0.0
Ar 9.1851 0.267544 0.0
Ar 5.02708 1.51246 0.0
Ar 7.7212 6.23471 0.0
Ar 4.01486 2.15893 0.0
Ar 9.53847 3.76099 0.0
Ar 2.15286 7.26315 0.0
Ar 0.0601931 7.92379 0.0
Ar 10.2852 7.22159 0.0
Ar 7.44344 11.5349 0.0
Ar 4.73971 3.64839 0.0
Ar 1.48768 8.92137 0.0
Ar 11.7048 9.03486 0.0
Ar 8.48209 11.0856 0.0
Ar 11.038 1.94906 0.0
Ar 5.0623 5.94052 0.0
Ar 4.74786 8.48545 0.0
Ar 11.8819 11.1299 0.0
Ar 10.9464 8.01325 0.0
Ar 7.45759 1.69988 0.0
Ar 8.08746 3.45029 0.0
Ar 4.01079 0.310157 0.0
Ar 11.0337 3.25381 0.0
Ar 6.72865 0.612243 0.0
Ar 5.48195 0.262093 0.0
Ar 0.552987 2.70935 0.0
Ar 11.8955 6.37992 0.0
Ar 0.781298 4.49628 0.0
Ar 5.18097 4.8614 0.0
Ar 8.35618 8.40477 0.0
Ar 10.9018 5.561 0.0
Ar 2.82566 5.18761 0.0
36
step 2680
Ar 9.77816 11.2796 0.0
Ar 2.54752 11.9413 0.0
Ar 3.50095 3.10425 0.0
Ar 10.598 4.42415 0.0
Ar 4.85854 9.91067 0.0
Ar 9.11313 0.313218 0.0
Ar 4.98178 1.40559 0.0
Ar 7.75122 6.25874 0.0
Ar 3.95982 2.08348 0.0
Ar 9.58984 3.52378 0.0
Ar 2.24133 7.22691 0.0
Ar 0.0144025 7.95865 0.0
Ar 10.4395 7.05087 0.0
Ar 7.37554 11.7499 0.0
Ar 4.81947 3.65331 0.0
Ar 1.67346 8.83187 0.0
Ar 11.6498 8.93 0.0
Ar 8.54224 11.1051 0.0
Ar 10.9889 1.87741 0.0
Ar 5.11529 5.95418 0.0
Ar 4.56633 8.45345 0.0
Ar 11.8291 11.1646 0.0
Ar 10.9745 8.10632 0.0
Ar 7.48912 1.68159 0.0
Ar 8.12861 3.37309 0.0
Ar 3.86215 0.300787 0.0
Ar 11.0132 3.42053 0.0
Ar 6.59733 0.605024 0.0
Ar 5.49844 0.46176 0.0
Ar 0.51094 2.77681 0.0
Ar 11.8181 6.50893 0.0
Ar 0.803256 4.46899 0.0
Ar 5.35436 4.76623 0.0
Ar 8.29982 8.55992 0.0
Ar 10.9973 5.59099 0.0
Ar 2.71852 5.17799 0.0
36
step 2700
Ar 9.68312 11.2351 0.0
Ar 2.55627 11.9781 0.0
Ar 3.53087 3.00473 0.0
Ar 10.6919 4.49319 0.0
Ar 4.88915 9.97204 0.0
Ar 9.04087 0.321103 0.0
Ar 4.86574 1.37529 0.0
Ar 7.78138 6.28333 0.0
Ar 3.92719 1.99141 0.0
Ar 9.65818 3.29621 0.0
Ar 2.32762 7.19466 0.0
Ar 0.0489501 7.90114 0.0
Ar 10.6147 6.87681 0.0
Ar 7.32417 11.9646 0.0
Ar 4.8935 3.6699 0.0
Ar 1.85672 8.736 0.0
Ar 11.6105 8.94368 0.0
Ar 8.61342 11.1557 0.0
Ar 10.9424 1.81898 0.0
Ar 5.17197 5.94843 0.0
Ar 4.38704 8.43361 0.0
Ar 11.7746 11.1986 0.0
Ar 10.9061 8.14765 0.0
Ar 7.51125 1.64991 0.0
Ar 8.18134 3.29389 0.0
Ar 3.70861 0.297061 0.0
Ar 11.0075 3.51689 0.0
Ar 6.5133 0.608228 0.0
Ar 5.52113 0.590096 0.0
Ar 0.459518 2.85004 0.0
Ar 11.7133 6.64115 0.0
Ar 0.82232 4.43788 0.0
Ar 5.51348 4.66853 0.0
Ar 8.24343 8.71448 0.0
Ar 11.0982 5.62326 0.0
Ar 2.61013 5.16825 0.0
36
step 2720
Ar 9.64635 11.2137 0.0
Ar 2.57419 0.0176773 0.0
Ar 3.56263 2.93205 0.0
Ar 10.7484 4.68624 0.0
Ar 4.91753 10.0263 0.0
Ar 8.96782 0.288642 0.0
Ar 4.71034 1.42358 0.0
Ar 7.8116 6.30823 0.0
Ar 3.85059 1.90461 0.0
Ar 9.73955 3.07642 0.0
Ar 2.4118 7.16861 0.0
Ar 0.0765591 7.81081 0.0
Ar 10.6983 6.71525 0.0
Ar 7.38448 0.10525 0.0
Ar 4.96558 3.69462 0.0
Ar 2.03985 8.63207 0.0
Ar 11.6106 9.01963 0.0
Ar 8.6128 11.23 0.0
Ar 10.8971 1.76942 0.0
Ar 5.2339 5.92169 0.0
Ar 4.2094 8.42069 0.0
Ar 11.7188 11.2318 0.0
Ar 10.7967 8.11111 0.0
Ar 7.52438 1.60386 0.0
Ar 8.24512 3.21101 0.0
Ar 3.55641 0.30245 0.0
Ar 11.0315 3.49031 0.0
Ar 6.52886 0.704268 0.0
Ar 5.4409 0.596784 0.0
Ar 0.3991 2.93212 0.0
Ar 11.7075 6.77308 0.0
Ar 0.838093 4.40106 0.0
Ar 5.65825 4.5762 0.0
Ar 8.18703 8.86909 0.0
Ar 11.1984 5.67276 0.0
Ar 2.49963 5.15859 0.0
36
step 2740
Ar 9.70542 11.213 0.0
Ar 2.4813 0.0251708 0.0
Ar 3.58946 2.92297 0.0
Ar 10.7949 4.8388 0.0
Ar 4.94413 10.0764 0.0
Ar 8.90215 0.250045 0.0
Ar 4.70955 1.39137 0.0
Ar 7.84182 6.33314 0.0
Ar 3.60367 1.85488 0.0
Ar 9.83252 2.86233 0.0
Ar 2.49365 7.15256 0.0
Ar 0.0930035 7.81163 0.0
Ar 10.5752 6.56702 0.0
Ar 7.55014 0.188647 0.0
Ar 5.02913 3.71424 0.0
Ar 2.22542 8.5166 0.0
Ar 11.6067 9.06153 0.0
Ar 8.48973 11.2976 0.0
Ar 10.8506 1.72961 0.0
Ar 5.30059 5.87858 0.0
Ar 4.03155 8.41138 0.0
Ar 11.6615 11.2641 0.0
Ar 10.7228 8.06058 0.0
Ar 7.52434 1.5352 0.0
Ar 8.31865 3.12327 0.0
Ar 3.5248 0.353415 0.0
Ar 11.0476 3.46345 0.0
Ar 6.5165 0.87864 0.0
Ar 5.33771 0.573086 0.0
Ar 0.327421 3.02767 0.0
Ar 11.8832 6.81663 0.0
Ar 0.850068 4.35604 0.0
Ar 5.7989 4.49969 0.0
Ar 8.13072 9.0242 0.0
Ar 11.3191 5.7776 0.0
Ar 2.38612 5.14892 0.0
36
step 2760
Ar 9.7391 11.2308 0.0
Ar 2.34166 0.0194473 0.0
Ar 3.61819 2.96668 0.0
Ar 10.8279 4.94552 0.0
Ar 4.96951 10.1243 0.0
Ar 8.86228 0.271899 0.0
Ar 4.64261 1.42633 0.0
Ar 7.87205 6.35805 0.0
Ar 3.36878 1.73941 0.0
Ar 9.94105 2.65101 0.0
Ar 2.5734 7.15324 0.0
Ar 0.11948 7.97678 0.0
Ar 10.4572 6.44416 0.0
Ar 7.73401 0.286917 0.0
Ar 5.07765 3.72147 0.0
Ar 2.4177 8.38354 0.0
Ar 11.597 9.06873 0.0
Ar 8.33228 11.3021 0.0
Ar 10.7983 1.70376 0.0
Ar 5.37168 5.82196 0.0
Ar 3.84921 8.4033 0.0
Ar 11.602 11.2954 0.0
Ar 10.6822 8.00626 0.0
Ar 7.51444 1.4384 0.0
Ar 8.4003 3.03027 0.0
Ar 3.55089 0.43682 0.0
Ar 11.0628 3.43559 0.0
Ar 6.51054 1.04874 0.0
Ar 5.30556 0.484987 0.0
Ar 0.240925 3.14264 0.0
Ar 0.00775332 6.72181 0.0
Ar 0.856832 4.29947 0.0
Ar 5.94377 4.44472 0.0
Ar 8.07452 9.18003 0.0
Ar 11.4681 5.89658 0.0
Ar 2.26842 5.13874 0.0
36
step 2780
Ar 9.7462 11.2648 0.0
Ar 2.22241 0.022047 0.0
Ar 3.65062 2.99292 0.0
Ar 10.8615 5.05083 0.0
Ar 4.99413 10.1715 0.0
Ar 8.87426 0.298738 0.0
Ar 4.5453 1.4609 0.0
Ar 7.9023 6.38295 0.0
Ar 3.16148 1.61448 0.0
Ar 10.0665 2.4426 0.0
Ar 2.65328 7.17364 0.0
Ar 0.123374 8.14006 0.0
Ar 10.3592 6.32014 0.0
Ar 7.88058 0.389259 0.0
Ar 5.12237 3.72754 0.0
Ar 2.62547 8.23234 0.0
Ar 11.5832 9.04846 0.0
Ar 8.17444 11.2967 0.0
Ar 10.7383 1.69314 0.0
Ar 5.44721 5.75299 0.0
Ar 3.65122 8.39327 0.0
Ar 11.5396 11.3258 0.0
Ar 10.6686 7.95283 0.0
Ar 7.54082 1.34655 0.0
Ar 8.48832 2.93233 0.0
Ar 3.56845 0.542586 0.0
Ar 11.0796 3.39969 0.0
Ar 6.46344 1.19276 0.0
Ar 5.28874 0.404945 0.0
Ar 0.145134 3.28029 0.0
Ar 0.218517 6.79107 0.0
Ar 0.855505 4.22806 0.0
Ar 6.08193 4.39953 0.0
Ar 8.01846 9.33704 0.0
Ar 11.5143 5.87062 0.0
Ar 2.14521 5.12667 0.0
36
step 2800
Ar 9.73427 11.3151 0.0
Ar 2.11843 0.0326059 0.0
Ar 3.6866 3.0051 0.0
Ar 10.8429 5.10801 0.0
Ar 5.01831 10.2187 0.0
Ar 9.04719 0.284125 0.0
Ar 4.4294 1.46975 0.0
Ar 7.93291 6.40785 0.0
Ar 2.97166 1.49737 0.0
Ar 10.077 2.38447 0.0
Ar 2.73948 7.10748 0.0
Ar 0.153143 8.22223 0.0
Ar 10.2934 6.17761 0.0
Ar 7.90692 0.371934 0.0
Ar 5.17527 3.74126 0.0
Ar 2.61697 8.12419 0.0
Ar 11.5223 9.0757 0.0
Ar 8.03627 11.3079 0.0
Ar 10.8011 1.55061 0.0
Ar 5.52753 5.67174 0.0
Ar 3.66288 8.42617 0.0
Ar 11.4733 11.3555 0.0
Ar 10.6787 7.90443 0.0
Ar 7.55249 1.39401 0.0
Ar 8.58122 2.82964 0.0
Ar 3.59449 0.657034 0.0
Ar 11.0377 3.35723 0.0
Ar 6.37963 1.31839 0.0
Ar 5.26775 0.351629 0.0
Ar 0.100121 3.42576 0.0
Ar 0.434552 6.89826 0.0
Ar 0.850956 4.15155 0.0
Ar 6.20107 4.35542 0.0
Ar 7.96256 9.49612 0.0
Ar 11.5764 5.89426 0.0
Ar 2.01503 5.11088 0.0
36
step 2820
Ar 9.7166 11.3699 0.0
Ar 2.02462 0.051069 0.0
Ar 3.72771 3.00889 0.0
Ar 10.7875 5.13371 0.0
Ar 5.04211 10.2664 0.0
Ar 9.22155 0.255867 0.0
Ar 4.31242 1.47384 0.0
Ar 7.96409 6.43269 0.0
Ar 2.7586 1.43034 0.0
Ar 10.0361 2.40549 0.0
Ar 2.83731 6.91595 0.0
Ar 0.213717 8.22792 0.0
Ar 10.2552 6.02283 0.0
Ar 7.93994 0.341976 0.0
Ar 5.24111 3.76476 0.0
Ar 2.44053 8.10647 0.0
Ar 11.4157 9.14586 0.0
Ar 7.91872 11.2788 0.0
Ar 10.92 1.3473 0.0
Ar 5.61323 5.57715 0.0
Ar 3.82966 8.49335 0.0
Ar 11.4022 11.3851 0.0
Ar 10.7091 7.86414 0.0
Ar 7.53015 1.5057 0.0
Ar 8.68101 2.72093 0.0
Ar 3.65296 0.715118 0.0
Ar 10.9275 3.30166 0.0
Ar 6.30323 1.43482 0.0
Ar 5.24088 0.320222 0.0
Ar 0.0445277 3.51484 0.0
Ar 0.631217 7.00923 0.0
Ar 0.916644 4.14082 0.0
Ar 6.29617 4.31163 0.0
Ar 7.9068 9.65889 0.0
Ar 11.6654 5.97722 0.0
Ar 1.87577 5.08911 0.0
36
step 2840
Ar 9.75848 11.3177 0.0
Ar 1.93943 0.0795237 0.0
Ar 3.77462 3.00528 0.0
Ar 10.801 5.08186 0.0
Ar 5.06543 10.3146 0.0
Ar 9.30999 0.334978 0.0
Ar 4.28359 1.57967 0.0
Ar 7.99578 6.45736 0.0
Ar 2.5525 1.36039 0.0
Ar 10.0055 2.43256 0.0
Ar 2.93008 6.73912 0.0
Ar 0.261386 8.22222 0.0
Ar 10.1795 5.95585 0.0
Ar 7.98696 0.384827 0.0
Ar 5.32039 3.79774 0.0
Ar 2.28109 8.07869 0.0
Ar 11.3144 9.19185 0.0
Ar 7.81169 11.1936 0.0
Ar 11.0267 1.15646 0.0
Ar 5.70542 5.4665 0.0
Ar 3.98146 8.55489 0.0
Ar 11.3242 11.4158 0.0
Ar 10.7565 7.83356 0.0
Ar 7.49686 1.59871 0.0
Ar 8.79422 2.60402 0.0
Ar 3.62319 0.663247 0.0
Ar 10.8056 3.23292 0.0
Ar 6.24311 1.54435 0.0
Ar 5.20653 0.305892 0.0
Ar 11.9379 3.56687 0.0
Ar 0.810551 7.1308 0.0
Ar 1.03907 4.181 0.0
Ar 6.36637 4.27152 0.0
Ar 7.85126 9.82981 0.0
Ar 11.7365 6.06008 0.0
Ar 1.72273 5.05579 0.0
36
step 2860
Ar 9.82262 11.2349 0.0
Ar 1.86483 0.123632 0.0
Ar 3.82849 2.99124 0.0
Ar 10.8665 4.98323 0.0
Ar 5.08811 10.3634 0.0
Ar 9.36074 0.448086 0.0
Ar 4.27001 1.70832 0.0
Ar 8.02794 6.48169 0.0
Ar 2.36401 1.26567 0.0
Ar 9.95948 2.45166 0.0
Ar 3.01635 6.57403 0.0
Ar 0.298142 8.20669 0.0
Ar 10.0765 5.94673 0.0
Ar 8.04467 0.431957 0.0
Ar 5.40518 3.83698 0.0
Ar 2.12545 8.03796 0.0
Ar 11.2217 9.2127 0.0
Ar 7.71248 11.1089 0.0
Ar 11.1266 0.966623 0.0
Ar 5.80592 5.3343 0.0
Ar 4.12873 8.6152 0.0
Ar 11.2357 11.4497 0.0
Ar 10.8193 7.81368 0.0
Ar 7.45387 1.67351 0.0
Ar 8.91932 2.47962 0.0
Ar 3.56164 0.601889 0.0
Ar 10.7055 3.17551 0.0
Ar 6.20093 1.64888 0.0
Ar 5.16466 0.304147 0.0
Ar 11.8283 3.62517 0.0
Ar 0.976701 7.26729 0.0
Ar 1.1175 4.17111 0.0
Ar 6.41893 4.24394 0.0
Ar 7.79554 10.0186 0.0
Ar 11.7932 6.13739 0.0
Ar 1.5946 5.06566 0.0
36
step 2880
Ar 9.89256 11.1747 0.0
Ar 1.80113 0.184232 0.0
Ar 3.89135 2.95986 0.0
Ar 10.9313 4.90053 0.0
Ar 5.10998 10.4128 0.0
Ar 9.39978 0.544229 0.0
Ar 4.24284 1.8324 0.0
Ar 8.06115 6.50563 0.0
Ar 2.18766 1.14764 0.0
Ar 9.97045 2.40737 0.0
Ar 3.09813 6.41348 0.0
Ar 0.326285 8.1844 0.0
Ar 9.99046 5.9249 0.0
Ar 8.11224 0.477661 0.0
Ar 5.46873 3.87493 0.0
Ar 1.96021 7.98633 0.0
Ar 11.1344 9.21255 0.0
Ar 7.61069 11.1292 0.0
Ar 11.2214 0.766855 0.0
Ar 5.91424 5.17426 0.0
Ar 4.27511 8.67614 0.0
Ar 11.1303 11.4923 0.0
Ar 10.8973 7.80589 0.0
Ar 7.40071 1.73392 0.0
Ar 8.92454 2.35039 0.0
Ar 3.49782 0.564963 0.0
Ar 10.6861 3.1888 0.0
Ar 6.17759 1.74972 0.0
Ar 5.11582 0.310995 0.0
Ar 11.7103 3.68745 0.0
Ar 1.1408 7.41662 0.0
Ar 1.1126 4.03959 0.0
Ar 6.48164 4.24267 0.0
Ar 7.74971 10.1224 0.0
Ar 11.8424 6.2111 0.0
Ar 1.53223 5.19307 0.0
36
step 2900
Ar 9.97745 11.1337 0.0
Ar 1.6992 0.136705 0.0
Ar 3.95843 2.92618 0.0
Ar 10.997 4.81964 0.0
Ar 5.13085 10.4626 0.0
Ar 9.42406 0.630383 0.0
Ar 4.21105 1.94458 0.0
Ar 8.09602 6.52907 0.0
Ar 2.06877 1.13312 0.0
Ar 10.0486 2.31893 0.0
Ar 3.17633 6.25424 0.0
Ar 0.337763 8.16519 0.0
Ar 9.91794 5.89238 0.0
Ar 8.19101 0.523687 0.0
Ar 5.50427 3.91561 0.0
Ar 2.00632 8.08585 0.0
Ar 11.0509 9.19279 0.0
Ar 7.49611 11.3249 0.0
Ar 11.3102 0.549995 0.0
Ar 5.99021 5.03656 0.0
Ar 4.42198 8.73893 0.0
Ar 11.0041 11.5469 0.0
Ar 10.9918 7.81246 0.0
Ar 7.33838 1.78437 0.0
Ar 8.81683 2.21163 0.0
Ar 3.42956 0.544038 0.0
Ar 10.7053 3.24858 0.0
Ar 6.17314 1.84782 0.0
Ar 5.06034 0.323269 0.0
Ar 11.6004 3.76768 0.0
Ar 1.08947 7.40671 0.0
Ar 1.09625 3.91532 0.0
Ar 6.60172 4.21321 0.0
Ar 7.72395 10.0663 0.0
Ar 11.8881 6.28388 0.0
Ar 1.46613 5.31271 0.0
36
step 2920
Ar 10.0154 11.0792 0.0
Ar 1.56777 0.0038628 0.0
Ar 3.99804 3.01589 0.0
Ar 11.0585 4.74004 0.0
Ar 5.15059 10.5128 0.0
Ar 9.43085 0.714089 0.0
Ar 4.20901 1.9245 0.0
Ar 8.13307 6.55173 0.0
Ar 1.99492 1.20019 0.0
Ar 10.1096 2.22704 0.0
Ar 3.25162 6.09514 0.0
Ar 0.30358 8.17325 0.0
Ar 9.85312 5.85413 0.0
Ar 8.27977 0.568981 0.0
Ar 5.54888 3.97194 0.0
Ar 2.14267 8.25249 0.0
Ar 10.9717 9.15237 0.0
Ar 7.39367 11.5219 0.0
Ar 11.431 0.419892 0.0
Ar 5.99456 4.96913 0.0
Ar 4.56976 8.80439 0.0
Ar 10.8845 11.5372 0.0
Ar 11.1068 7.83672 0.0
Ar 7.27718 1.82887 0.0
Ar 8.71877 2.06335 0.0
Ar 3.35668 0.533802 0.0
Ar 10.6521 3.27095 0.0
Ar 6.17976 1.94449 0.0
Ar 4.99843 0.338762 0.0
Ar 11.5731 3.8943 0.0
Ar 0.965786 7.29288 0.0
Ar 1.07121 3.80419 0.0
Ar 6.78152 4.09395 0.0
Ar 7.69574 10.0248 0.0
Ar 11.9357 6.36101 0.0
Ar 1.3946 5.42176 0.0
36
step 2940
Ar 9.86989 10.9353 0.0
Ar 1.44457 11.8902 0.0
Ar 4.03265 3.14236 0.0
Ar 11.0203 4.81124 0.0
Ar 5.16928 10.5629 0.0
Ar 9.42838 0.805425 0.0
Ar 4.2151 1.85959 0.0
Ar 8.17293 6.57326 0.0
Ar 1.92505 1.24448 0.0
Ar 10.1606 2.14369 0.0
Ar 3.32482 5.93578 0.0
Ar 0.23853 8.19063 0.0
Ar 9.79228 5.81288 0.0
Ar 8.3666 0.617055 0.0
Ar 5.59736 3.99218 0.0
Ar 2.26702 8.41131 0.0
Ar 10.8995 9.08858 0.0
Ar 7.30514 11.7227 0.0
Ar 11.6055 0.391961 0.0
Ar 6.01971 4.93206 0.0
Ar 4.71831 8.87321 0.0
Ar 10.8897 11.5206 0.0
Ar 11.241 7.88061 0.0
Ar 7.24632 1.86759 0.0
Ar 8.6272 1.89625 0.0
Ar 3.2812 0.532838 0.0
Ar 10.5752 3.2749 0.0
Ar 6.171 2.0433 0.0
Ar 4.92974 0.357005 0.0
Ar 11.67 3.87845 0.0
Ar 0.848645 7.16032 0.0
Ar 1.03428 3.70071 0.0
Ar 6.93379 3.97565 0.0
Ar 7.66545 9.99423 0.0
Ar 11.9951 6.4514 0.0
Ar 1.31803 5.52937 0.0
36
step 2960
Ar 9.71694 10.7901 0.0
Ar 1.32583 11.7922 0.0
Ar 4.07427 3.24991 0.0
Ar 10.9539 4.91646 0.0
Ar 5.18677 10.6124 0.0
Ar 9.45556 0.923771 0.0
Ar 4.21827 1.80383 0.0
Ar 8.21626 6.59313 0.0
Ar 1.85955 1.2699 0.0
Ar 10.2049 2.06989 0.0
Ar 3.39651 5.77611 0.0
Ar 0.280206 8.22359 0.0
Ar 9.73537 5.7683 0.0
Ar 8.40686 0.668064 0.0
Ar 5.62318 3.92007 0.0
Ar 2.38767 8.56794 0.0
Ar 10.839 8.99977 0.0
Ar 7.23057 11.9318 0.0
Ar 11.7828 0.367832 0.0
Ar 6.09891 4.96863 0.0
Ar 4.86767 8.94629 0.0
Ar 10.8984 11.5042 0.0
Ar 11.2738 7.90636 0.0
Ar 7.258 1.89871 0.0
Ar 8.53542 1.69903 0.0
Ar 3.20492 0.54115 0.0
Ar 10.5117 3.27569 0.0
Ar 6.13894 2.14714 0.0
Ar 4.85377 0.379021 0.0
Ar 11.7876 3.8154 0.0
Ar 0.789676 7.09554 0.0
Ar 0.978848 3.60307 0.0
Ar 7.05117 3.86996 0.0
Ar 7.63471 9.96827 0.0
Ar 11.9883 6.49302 0.0
Ar 1.23368 5.64333 0.0
36
step 2980
Ar 9.5786 10.6545 0.0
Ar 1.20474 11.7059 0.0
Ar 4.12304 3.34541 0.0
Ar 10.8891 5.01177 0.0
Ar 5.20295 10.6604 0.0
Ar 9.50811 1.07573 0.0
Ar 4.22081 1.74811 0.0
Ar 8.26383 6.6107 0.0
Ar 1.79977 1.2819 0.0
Ar 10.24 2.00214 0.0
Ar 3.46716 5.6163 0.0
Ar 0.41846 8.26353 0.0
Ar 9.68487 5.71924 0.0
Ar 8.38424 0.56875 0.0
Ar 5.6604 3.84277 0.0
Ar 2.50636 8.72364 0.0
Ar 10.789 8.89531 0.0
Ar 7.17178 0.15176 0.0
Ar 11.9505 0.326539 0.0
Ar 6.18702 4.99395 0.0
Ar 5.018 9.02472 0.0
Ar 10.9069 11.4952 0.0
Ar 11.2174 7.90705 0.0
Ar 7.28766 1.92397 0.0
Ar 8.45645 1.63003 0.0
Ar 3.12884 0.558855 0.0
Ar 10.4601 3.26562 0.0
Ar 6.11249 2.25272 0.0
Ar 4.76946 0.40727 0.0
Ar 11.8931 3.75706 0.0
Ar 0.874454 7.16352 0.0
Ar 0.908344 3.5093 0.0
Ar 7.14314 3.7715 0.0
Ar 7.60439 9.94448 0.0
Ar 11.8315 6.41881 0.0
Ar 1.13709 5.77152 0.0
36
step 3000
Ar 9.44697 10.5236 0.0
Ar 1.07137 11.633 0.0
Ar 4.17986 3.43528 0.0
Ar 10.8177 5.1103 0.0
Ar 5.21792 10.7057 0.0
Ar 9.53081 1.23474 0.0
Ar 4.22475 1.68217 0.0
Ar 8.31633 6.62516 0.0
Ar 1.74664 1.28311 0.0
Ar 10.2729 1.95066 0.0
Ar 3.53735 5.45599 0.0
Ar 0.542586 8.27955 0.0
Ar 9.64489 5.665 0.0
Ar 8.3432 0.359697 0.0
Ar 5.71448 3.77691 0.0
Ar 2.62337 8.87854 0.0
Ar 10.7266 8.8254 0.0
Ar 7.13498 0.383908 0.0
Ar 0.117799 0.265878 0.0
Ar 6.27158 4.99085 0.0
Ar 5.16905 9.10972 0.0
Ar 10.9236 11.4951 0.0
Ar 11.2009 7.86922 0.0
Ar 7.31769 1.94589 0.0
Ar 8.38834 1.66884 0.0
Ar 3.05345 0.586209 0.0
Ar 10.4163 3.23975 0.0
Ar 6.10536 2.35991 0.0
Ar 4.67503 0.446353 0.0
Ar 11.9007 3.72324 0.0
Ar 0.940998 7.22848 0.0
Ar 0.919559 3.39415 0.0
Ar 7.21519 3.67527 0.0
Ar 7.57505 9.922 0.0
Ar 11.6915 6.35058 0.0
Ar 1.02513 5.91992 0.0
36
step 3020
Ar 9.31715 10.3944 0.0
Ar 0.965891 11.5405 0.0
Ar 4.24575 3.5233 0.0
Ar 10.7356 5.22155 0.0
Ar 5.23209 10.746 0.0
Ar 9.45709 1.33489 0.0
Ar 4.23154 1.59641 0.0
Ar 8.37428 6.63566 0.0
Ar 1.70085 1.2742 0.0
Ar 10.3704 1.98142 0.0
Ar 3.6078 5.29447 0.0
Ar 0.648434 8.29116 0.0
Ar 9.62041 5.60575 0.0
Ar 8.2902 0.178929 0.0
Ar 5.78397 3.7139 0.0
Ar 2.73894 9.03274 0.0
Ar 10.6459 8.79762 0.0
Ar 7.1243 0.628133 0.0
Ar 0.247278 0.221761 0.0
Ar 6.35188 4.963 0.0
Ar 5.32046 9.20276 0.0
Ar 10.9502 11.5019 0.0
Ar 11.2261 7.78555 0.0
Ar 7.31451 1.97201 0.0
Ar 8.35152 1.67572 0.0
Ar 2.97891 0.623717 0.0
Ar 10.3793 3.19563 0.0
Ar 6.11801 2.4748 0.0
Ar 4.56812 0.502855 0.0
Ar 11.8375 3.70709 0.0
Ar 0.997427 7.26604 0.0
Ar 0.98995 3.26123 0.0
Ar 7.26873 3.57659 0.0
Ar 7.54715 9.90056 0.0
Ar 11.5671 6.28328 0.0
Ar 0.895358 6.09445 0.0
36
step 3040
Ar 9.18605 10.2657 0.0
Ar 0.98957 11.3332 0.0
Ar 4.32102 3.61225 0.0
Ar 10.6549 5.34939 0.0
Ar 5.24628 10.7791 0.0
Ar 9.35789 1.41861 0.0
Ar 4.22999 1.52249 0.0
Ar 8.43792 6.64147 0.0
Ar 1.66385 1.25508 0.0
Ar 10.4831 2.04699 0.0
Ar 3.67925 5.13021 0.0
Ar 0.734134 8.32337 0.0
Ar 9.60428 5.54671 0.0
Ar 8.22096 0.0228281 0.0
Ar 5.86936 3.64584 0.0
Ar 2.85347 9.18645 0.0
Ar 10.5716 8.76081 0.0
Ar 7.14333 0.88869 0.0
Ar 0.239676 0.291134 0.0
Ar 6.42795 4.91289 0.0
Ar 5.4719 9.30572 0.0
Ar 10.9874 11.5144 0.0
Ar 11.2616 7.70448 0.0
Ar 7.25977 2.00374 0.0
Ar 8.34231 1.65672 0.0
Ar 2.90506 0.672079 0.0
Ar 10.3507 3.13497 0.0
Ar 6.15131 2.60435 0.0
Ar 4.45731 0.543587 0.0
Ar 11.7808 3.68239 0.0
Ar 1.05643 7.26871 0.0
Ar 1.04284 3.13415 0.0
Ar 7.30132 3.46976 0.0
Ar 7.52155 9.88044 0.0
Ar 11.4513 6.21077 0.0
Ar 0.743827 6.28056 0.0
36
step 3060
Ar 9.05079 10.1368 0.0
Ar 1.01192 11.1313 0.0
Ar 4.40444 3.70598 0.0
Ar 10.6174 5.47017 0.0
Ar 5.26178 10.8023 0.0
Ar 9.34498 1.49611 0.0
Ar 4.19109 1.57965 0.0
Ar 8.50745 6.64173 0.0
Ar 1.63829 1.22567 0.0
Ar 10.5817 2.07804 0.0
Ar 3.75351 4.95954 0.0
Ar 0.806748 8.3679 0.0
Ar 9.54186 5.50007 0.0
Ar 8.14088 11.8856 0.0
Ar 5.94946 3.65651 0.0
Ar 2.96733 9.33988 0.0
Ar 10.5099 8.70557 0.0
Ar 7.18746 1.10281 0.0
Ar 0.225731 0.353373 0.0
Ar 6.4993 4.84065 0.0
Ar 5.62266 9.42093 0.0
Ar 11.0363 11.533 0.0
Ar 11.2973 7.63244 0.0
Ar 7.19044 2.10502 0.0
Ar 8.24616 1.64078 0.0
Ar 2.83019 0.73174 0.0
Ar 10.326 3.10161 0.0
Ar 6.2345 2.66548 0.0
Ar 4.36949 0.449095 0.0
Ar 11.7294 3.64721 0.0
Ar 1.14271 7.33014 0.0
Ar 1.0796 3.01241 0.0
Ar 7.30491 3.34585 0.0
Ar 7.49978 9.8621 0.0
Ar 11.3577 6.15076 0.0
Ar 0.540821 6.39175 0.0
36
step 3080
Ar 8.90728 10.0074 0.0
Ar 1.02533 10.9431 0.0
Ar 4.49147 3.81218 0.0
Ar 10.5215 5.49275 0.0
Ar 5.28031 10.813 0.0
Ar 9.36969 1.57802 0.0
Ar 4.14289 1.64773 0.0
Ar 8.58412 6.63423 0.0
Ar 1.62704 1.18622 0.0
Ar 10.6774 2.04599 0.0
Ar 3.83551 4.77458 0.0
Ar 0.86691 8.42919 0.0
Ar 9.42941 5.46422 0.0
Ar 8.05606 11.7596 0.0
Ar 6.01509 3.79079 0.0
Ar 3.08067 9.49308 0.0
Ar 10.46 8.63454 0.0
Ar 7.23442 1.15572 0.0
Ar 0.212804 0.399165 0.0
Ar 6.5638 4.7437 0.0
Ar 5.77184 9.55141 0.0
Ar 11.0984 11.5592 0.0
Ar 11.3326 7.56221 0.0
Ar 7.22349 2.2924 0.0
Ar 8.11402 1.63305 0.0
Ar 2.74964 0.802144 0.0
Ar 10.2975 3.1269 0.0
Ar 6.27739 2.66785 0.0
Ar 4.2776 0.340153 0.0
Ar 11.6763 3.60204 0.0
Ar 1.24028 7.39219 0.0
Ar 1.10624 2.89307 0.0
Ar 7.27562 3.24096 0.0
Ar 7.48434 9.84607 0.0
Ar 11.3745 6.19935 0.0
Ar 0.318455 6.48584 0.0
36
step 3100
Ar 8.74877 9.87735 0.0
Ar 1.03433 10.7613 0.0
Ar 4.60469 3.9034 0.0
Ar 10.4147 5.48797 0.0
Ar 5.3046 10.8082 0.0
Ar 9.38795 1.66931 0.0
Ar 4.09153 1.69258 0.0
Ar 8.66988 6.61445 0.0
Ar 1.62299 1.14097 0.0
Ar 10.7573 2.01326 0.0
Ar 3.90408 4.60286 0.0
Ar 0.918447 8.49942 0.0
Ar 9.28949 5.44006 0.0
Ar 7.96848 11.6397 0.0
Ar 6.0593 3.86587 0.0
Ar 3.19359 9.64623 0.0
Ar 10.4208 8.5506 0.0
Ar 7.15454 1.12205 0.0
Ar 0.19523 0.433172 0.0
Ar 6.66053 4.6837 0.0
Ar 5.91861 9.7007 0.0
Ar 11.1757 11.5952 0.0
Ar 11.3723 7.4781 0.0
Ar 7.34529 2.19612 0.0
Ar 8.19657 1.6474 0.0
Ar 2.66776 0.87924 0.0
Ar 10.2817 3.15108 0.0
Ar 6.16461 2.75705 0.0
Ar 4.17769 0.251529 0.0
Ar 11.6155 3.54699 0.0
Ar 1.32342 7.42621 0.0
Ar 1.12676 2.77356 0.0
Ar 7.22904 3.40999 0.0
Ar 7.47933 9.83288 0.0
Ar 11.2352 6.23496 0.0
Ar 0.289385 6.66649 0.0
36
step 3120
Ar 8.5699 9.74801 0.0
Ar 1.04099 10.5822 0.0
Ar 4.85123 3.87472 0.0
Ar 10.3018 5.47843 0.0
Ar 5.33813 10.7856 0.0
Ar 9.42234 1.77058 0.0
Ar 4.03587 1.72051 0.0
Ar 8.76642 6.57553 0.0
Ar 1.57331 1.10484 0.0
Ar 10.8158 2.00046 0.0
Ar 3.85782 4.54843 0.0
Ar 0.969919 8.55761 0.0
Ar 9.14206 5.43452 0.0
Ar 7.87875 11.5217 0.0
Ar 6.03031 3.8464 0.0
Ar 3.30646 9.7998 0.0
Ar 10.3907 8.45592 0.0
Ar 7.05388 1.058 0.0
Ar 0.169163 0.455575 0.0
Ar 6.84005 4.71652 0.0
Ar 6.06334 9.87062 0.0
Ar 11.2708 11.6446 0.0
Ar 11.4126 7.37428 0.0
Ar 7.31216 2.21621 0.0
Ar 8.43727 1.57727 0.0
Ar 2.63476 0.949364 0.0
Ar 10.2889 3.1556 0.0
Ar 6.08944 2.82682 0.0
Ar 4.0724 0.177546 0.0
Ar 11.5403 3.4813 0.0
Ar 1.38208 7.45554 0.0
Ar 1.14387 2.65092 0.0
Ar 7.13805 3.59151 0.0
Ar 7.48579 9.82279 0.0
Ar 11.0555 6.28295 0.0
Ar 0.317909 6.88724 0.0
36
step 3140
Ar 8.44066 9.61373 0.0
Ar 1.0462 10.4034 0.0
Ar 5.07379 3.83388 0.0
Ar 10.1657 5.46219 0.0
Ar 5.37759 10.7532 0.0
Ar 9.60474 1.90752 0.0
Ar 3.97417 1.73551 0.0
Ar 8.87216 6.51859 0.0
Ar 1.47252 1.07922 0.0
Ar 10.8519 2.01097 0.0
Ar 3.81079 4.49798 0.0
Ar 1.02471 8.59554 0.0
Ar 9.00375 5.44635 0.0
Ar 7.78675 11.4018 0.0
Ar 6.03354 3.9411 0.0
Ar 3.41966 9.95414 0.0
Ar 10.3689 8.3514 0.0
Ar 6.97147 1.01365 0.0
Ar 0.138077 0.470085 0.0
Ar 7.01321 4.74923 0.0
Ar 6.21634 10.0511 0.0
Ar 11.3808 11.7061 0.0
Ar 11.3561 7.31604 0.0
Ar 7.2695 2.23867 0.0
Ar 8.52316 1.48289 0.0
Ar 2.65466 1.01361 0.0
Ar 10.3228 3.13814 0.0
Ar 6.051 2.79876 0.0
Ar 3.9624 0.114597 0.0
Ar 11.4439 3.40285 0.0
Ar 1.41623 7.49277 0.0
Ar 1.15965 2.52111 0.0
Ar 7.03019 3.73498 0.0
Ar 7.42696 9.82504 0.0
Ar 10.8971 6.35252 0.0
Ar 0.43879 7.07137 0.0
36
step 3160
Ar 8.40392 9.46509 0.0
Ar 1.05055 10.2221 0.0
Ar 5.04477 3.76386 0.0
Ar 10.0172 5.45772 0.0
Ar 5.40332 10.7307 0.0
Ar 9.82588 2.0623 0.0
Ar 3.90308 1.73842 0.0
Ar 8.98327 6.49232 0.0
Ar 1.37148 1.06011 0.0
Ar 10.8669 2.04959 0.0
Ar 3.77895 4.43942 0.0
Ar 1.08152 8.61421 0.0
Ar 8.88194 5.42409 0.0
Ar 7.69104 11.2751 0.0
Ar 6.11538 4.13283 0.0
Ar 3.53375 10.1099 0.0
Ar 10.3576 8.234 0.0
Ar 6.90252 0.992708 0.0
Ar 0.151365 0.525957 0.0
Ar 7.16536 4.87471 0.0
Ar 6.38256 10.2267 0.0
Ar 11.4593 11.7329 0.0
Ar 11.2758 7.32168 0.0
Ar 7.21262 2.25244 0.0
Ar 8.57669 1.3907 0.0
Ar 2.6758 1.08007 0.0
Ar 10.3551 3.08559 0.0
Ar 6.0371 2.77745 0.0
Ar 3.84693 0.0613655 0.0
Ar 11.3478 3.3135 0.0
Ar 1.50991 7.57233 0.0
Ar 1.176 2.37803 0.0
Ar 7.09885 3.69603 0.0
Ar 7.27647 9.84819 0.0
Ar 10.7153 6.37884 0.0
Ar 0.523969 7.21893 0.0
36
step 3180
Ar 8.35556 9.32265 0.0
Ar 1.05454 10.0338 0.0
Ar 4.99395 3.68656 0.0
Ar 9.86146 5.47293 0.0
Ar 5.39491 10.7225 0.0
Ar 9.90385 2.1592 0.0
Ar 3.81737 1.7281 0.0
Ar 9.11121 6.49636 0.0
Ar 1.27045 1.05298 0.0
Ar 10.9896 2.11133 0.0
Ar 3.7608 4.37379 0.0
Ar 1.13311 8.6287 0.0
Ar 8.76185 5.36124 0.0
Ar 7.58622 11.1335 0.0
Ar 6.12309 4.35648 0.0
Ar 3.64985 10.2685 0.0
Ar 10.3613 8.09835 0.0
Ar 6.8441 0.994228 0.0
Ar 0.227383 0.642106 0.0
Ar 7.30239 4.98954 0.0
Ar 6.38984 10.4792 0.0
Ar 11.4938 11.7098 0.0
Ar 11.2137 7.35874 0.0
Ar 7.13476 2.26463 0.0
Ar 8.63377 1.30872 0.0
Ar 2.6962 1.14949 0.0
Ar 10.3036 3.0517 0.0
Ar 6.04607 2.78629 0.0
Ar 3.72542 0.0171532 0.0
Ar 11.359 3.23037 0.0
Ar 1.68403 7.68386 0.0
Ar 1.19401 2.21316 0.0
Ar 7.26861 3.59469 0.0
Ar 7.33635 9.79193 0.0
Ar 10.5107 6.37996 0.0
Ar 0.507086 7.34741 0.0
36
step 3200
Ar 8.31239 9.17801 0.0
Ar 1.05913 9.82919 0.0
Ar 4.96038 3.61508 0.0
Ar 9.70277 5.50039 0.0
Ar 5.29192 10.7378 0.0
Ar 9.80948 2.04299 0.0
Ar 3.71317 1.70365 0.0
Ar 9.26114 6.471 0.0
Ar 1.21635 1.05326 0.0
Ar 11.1763 2.17838 0.0
Ar 3.75727 4.30034 0.0
Ar 1.16762 8.66038 0.0
Ar 8.62536 5.30885 0.0
Ar 7.46515 10.9664 0.0
Ar 6.14441 4.56081 0.0
Ar 3.76993 10.4326 0.0
Ar 10.3505 7.96654 0.0
Ar 6.79388 1.01822 0.0
Ar 0.262513 0.740797 0.0
Ar 7.43335 5.08078 0.0
Ar 6.47571 10.7257 0.0
Ar 11.5373 11.6976 0.0
Ar 11.1765 7.36944 0.0
Ar 7.03914 2.28208 0.0
Ar 8.69389 1.23469 0.0
Ar 2.72437 1.2219 0.0
Ar 10.2968 3.20881 0.0
Ar 6.07198 2.81262 0.0
Ar 3.59821 11.9803 0.0
Ar 11.4275 3.1547 0.0
Ar 1.85082 7.77672 0.0
Ar 1.21166 2.04921 0.0
Ar 7.41125 3.49265 0.0
Ar 7.41847 9.74765 0.0
Ar 10.3049 6.40678 0.0
Ar 0.488486 7.49384 0.0
36
step 3220
Ar 8.30846 9.01006 0.0
Ar 1.06142 9.63854 0.0
Ar 4.93573 3.54765 0.0
Ar 9.57242 5.46408 0.0
Ar 5.18336 10.754 0.0
Ar 9.72221 1.9259 0.0
Ar 3.64331 1.69105 0.0
Ar 9.21213 6.48949 0.0
Ar 1.31563 0.930721 0.0
Ar 11.3048 2.12101 0.0
Ar 3.76961 4.2182 0.0
Ar 1.19189 8.66316 0.0
Ar 8.49367 5.27274 0.0
Ar 7.51641 10.805 0.0
Ar 6.17768 4.75532 0.0
Ar 3.89876 10.608 0.0
Ar 10.2496 7.88746 0.0
Ar 6.74995 1.06554 0.0
Ar 0.145251 0.781898 0.0
Ar 7.53693 5.15649 0.0
Ar 6.39754 10.9343 0.0
Ar 11.5952 11.7053 0.0
Ar 11.2333 7.30053 0.0
Ar 6.96349 2.28886 0.0
Ar 8.76428 1.17215 0.0
Ar 2.70852 1.27042 0.0
Ar 10.2996 3.34378 0.0
Ar 6.07805 2.86726 0.0
Ar 3.46739 11.9468 0.0
Ar 11.5284 3.21188 0.0
Ar 2.00232 7.86342 0.0
Ar 1.22453 2.04878 0.0
Ar 7.53165 3.37689 0.0
Ar 7.44783 9.75831 0.0
Ar 10.2946 6.46593 0.0
Ar 0.473991 7.65915 0.0
36
step 3240
Ar 8.30411 8.84512 0.0
Ar 1.04005 9.62526 0.0
Ar 4.91548 3.48203 0.0
Ar 9.52761 5.40834 0.0
Ar 5.08111 10.7722 0.0
Ar 9.63538 1.81067 0.0
Ar 3.66869 1.71859 0.0
Ar 9.00713 6.54237 0.0
Ar 1.43077 0.773752 0.0
Ar 11.418 2.02478 0.0
Ar 3.79964 4.12604 0.0
Ar 1.23161 8.47562 0.0
Ar 8.54378 5.26932 0.0
Ar 7.66324 10.7345 0.0
Ar 6.22567 4.94677 0.0
Ar 4.03919 10.8007 0.0
Ar 10.1416 7.79404 0.0
Ar 6.71113 1.13683 0.0
Ar 0.0165267 0.813593 0.0
Ar 7.38982 5.19555 0.0
Ar 6.21565 11.1262 0.0
Ar 11.6641 11.7333 0.0
Ar 11.3002 7.21862 0.0
Ar 6.93955 2.26494 0.0
Ar 8.84476 1.12023 0.0
Ar 2.58161 1.26519 0.0
Ar 10.3261 3.46002 0.0
Ar 6.03185 2.96486 0.0
Ar 3.3376 11.9109 0.0
Ar 11.6161 3.30623 0.0
Ar 2.14538 7.94965 0.0
Ar 1.23482 2.08218 0.0
Ar 7.63067 3.24337 0.0
Ar 7.46223 9.68944 0.0
Ar 10.4259 6.53758 0.0
Ar 0.452929 7.83127 0.0
36
step 3260
Ar 8.28597 8.69519 0.0
Ar 1.0174 9.6209 0.0
Ar 4.89685 3.41888 0.0
Ar 9.65441 5.40698 0.0
Ar 5.10454 10.7858 0.0
Ar 9.61648 1.75666 0.0
Ar 3.6879 1.74219 0.0
Ar 8.82263 6.56311 0.0
Ar 1.54488 0.643437 0.0
Ar 11.5402 1.93404 0.0
Ar 3.84955 4.02195 0.0
Ar 1.32608 8.38365 0.0
Ar 8.45208 5.26103 0.0
Ar 7.80874 10.7357 0.0
Ar 6.2605 5.13346 0.0
Ar 4.05896 11.0217 0.0
Ar 10.0537 7.66589 0.0
Ar 6.6739 1.21632 0.0
Ar 11.8963 0.859612 0.0
Ar 7.23451 5.2312 0.0
Ar 6.03067 11.3095 0.0
Ar 11.7367 11.7683 0.0
Ar 11.3855 7.16934 0.0
Ar 6.92436 2.25403 0.0
Ar 8.86071 1.01267 0.0
Ar 2.43922 1.25085 0.0
Ar 10.3753 3.56781 0.0
Ar 5.97609 3.07038 0.0
Ar 3.2151 11.8682 0.0
Ar 11.6793 3.3815 0.0
Ar 2.33523 8.00787 0.0
Ar 1.24818 2.08864 0.0
Ar 7.71005 3.09349 0.0
Ar 7.47872 9.53804 0.0
Ar 10.5094 6.60603 0.0
Ar 0.309968 7.9157 0.0
36
step 3280
Ar 8.25806 8.55633 0.0
Ar 0.999954 9.59017 0.0
Ar 4.86516 3.36309 0.0
Ar 9.777 5.4281 0.0
Ar 5.15952 10.7521 0.0
Ar 9.65436 1.75584 0.0
Ar 3.68792 1.75794 0.0
Ar 8.65115 6.55647 0.0
Ar 1.61886 0.49813 0.0
Ar 11.6613 1.88612 0.0
Ar 3.9173 3.90689 0.0
Ar 1.41396 8.35267 0.0
Ar 8.34994 5.27078 0.0
Ar 7.94628 10.7187 0.0
Ar 6.10463 5.29864 0.0
Ar 3.98842 11.2642 0.0
Ar 9.97542 7.52356 0.0
Ar 6.62662 1.2549 0.0
Ar 11.7909 0.889309 0.0
Ar 7.29059 5.28647 0.0
Ar 5.89959 11.529 0.0
Ar 11.8094 11.7946 0.0
Ar 11.5227 7.16623 0.0
Ar 6.9071 2.30648 0.0
Ar 8.82099 0.855073 0.0
Ar 2.34061 1.27142 0.0
Ar 10.4454 3.67086 0.0
Ar 5.93907 3.16292 0.0
Ar 3.09524 11.826 0.0
Ar 11.7208 3.44479 0.0
Ar 2.55819 8.05202 0.0
Ar 1.26694 2.07262 0.0
Ar 7.77965 2.93702 0.0
Ar 7.51087 9.39395 0.0
Ar 10.5169 6.62771 0.0
Ar 0.12913 7.97884 0.0
36
step 3300
Ar 8.23232 8.41516 0.0
Ar 0.988566 9.5346 0.0
Ar 4.84648 3.29111 0.0
Ar 9.88832 5.46654 0.0
Ar 5.15284 10.6918 0.0
Ar 9.6821 1.74326 0.0
Ar 3.67346 1.76907 0.0
Ar 8.48653 6.52645 0.0
Ar 1.64972 0.316077 0.0
Ar 11.7679 1.98536 0.0
Ar 3.95427 3.80863 0.0
Ar 1.48989 8.3333 0.0
Ar 8.34177 5.30068 0.0
Ar 8.07792 10.6853 0.0
Ar 5.93646 5.46011 0.0
Ar 3.98391 11.4732 0.0
Ar 9.86267 7.43322 0.0
Ar 6.57218 1.26607 0.0
Ar 11.7083 0.81664 0.0
Ar 7.28709 5.34737 0.0
Ar 5.81096 11.7857 0.0
Ar 11.8864 11.7893 0.0
Ar 11.588 7.07631 0.0
Ar 6.85206 2.38354 0.0
Ar 8.79177 0.711301 0.0
Ar 2.28698 1.34419 0.0
Ar 10.537 3.77024 0.0
Ar 5.94054 3.23653 0.0
Ar 2.92081 11.8204 0.0
Ar 11.7406 3.50132 0.0
Ar 2.7653 8.10036 0.0
Ar 1.29348 2.03566 0.0
Ar 7.87386 2.79756 0.0
Ar 7.54786 9.26707 0.0
Ar 10.5491 6.57669 0.0
Ar 0.032467 8.13985 0.0
36
step 3320
Ar 8.22062 8.25644 0.0
Ar 0.983054 9.45327 0.0
Ar 4.88887 3.17027 0.0
Ar 9.99925 5.52449 0.0
Ar 5.14186 10.6569 0.0
Ar 9.69872 1.71769 0.0
Ar 3.64619 1.77742 0.0
Ar 8.32536 6.47392 0.0
Ar 1.69856 0.14588 0.0
Ar 11.8809 2.09532 0.0
Ar 3.9098 3.75636 0.0
Ar 1.56529 8.32825 0.0
Ar 8.42359 5.35066 0.0
Ar 8.20588 10.6418 0.0
Ar 5.78816 5.61875 0.0
Ar 4.0081 11.6672 0.0
Ar 9.73185 7.3602 0.0
Ar 6.51859 1.28441 0.0
Ar 11.619 0.816124 0.0
Ar 7.18983 5.41651 0.0
Ar 5.71277 0.0311334 0.0
Ar 11.9776 11.7148 0.0
Ar 11.6289 6.97099 0.0
Ar 6.76366 2.45858 0.0
Ar 8.77353 0.581718 0.0
Ar 2.22705 1.41144 0.0
Ar 10.6497 3.86618 0.0
Ar 5.98107 3.29306 0.0
Ar 2.71673 11.8353 0.0
Ar 11.7395 3.55107 0.0
Ar 2.95015 8.1532 0.0
Ar 1.32306 1.98348 0.0
Ar 7.97978 2.66387 0.0
Ar 7.57724 9.16511 0.0
Ar 10.5963 6.49102 0.0
Ar 11.9595 8.3172 0.0
36
step 3340
Ar 8.21639 8.08759 0.0
Ar 0.981503 9.34345 0.0
Ar 4.91993 3.04452 0.0
Ar 10.0952 5.57294 0.0
Ar 5.12771 10.6406 0.0
Ar 9.70727 1.68294 0.0
Ar 3.60725 1.78427 0.0
Ar 8.16319 6.422 0.0
Ar 1.62731 0.0259674 0.0
Ar 0.00176497 2.1964 0.0
Ar 3.86405 3.70311 0.0
Ar 1.63844 8.34133 0.0
Ar 8.49828 5.40191 0.0
Ar 8.33128 10.5922 0.0
Ar 5.65559 5.7745 0.0
Ar 4.02348 11.8593 0.0
Ar 9.60959 7.26784 0.0
Ar 6.46399 1.31616 0.0
Ar 11.5373 0.834393 0.0
Ar 7.10161 5.49313 0.0
Ar 5.61173 0.274241 0.0
Ar 0.0706435 11.6447 0.0
Ar 11.6645 6.87914 0.0
Ar 6.68735 2.5176 0.0
Ar 8.76244 0.461861 0.0
Ar 2.21808 1.43244 0.0
Ar 10.7599 3.96545 0.0
Ar 6.03774 3.34884 0.0
Ar 2.65414 11.8231 0.0
Ar 11.7417 3.58585 0.0
Ar 3.1176 8.20857 0.0
Ar 1.29392 1.95603 0.0
Ar 8.0651 2.52434 0.0
Ar 7.6062 9.07481 0.0
Ar 10.6415 6.4335 0.0
Ar 11.8963 8.48495 0.0
36
step 3360
Ar 8.21108 7.92094 0.0
Ar 0.97695 9.20647 0.0
Ar 4.94445 2.93095 0.0
Ar 10.1246 5.52791 0.0
Ar 5.11065 10.6346 0.0
Ar 9.70917 1.64138 0.0
Ar 3.55589 1.78892 0.0
Ar 7.98569 6.39882 0.0
Ar 1.41107 11.9493 0.0
Ar 0.134343 2.29608 0.0
Ar 3.8384 3.63533 0.0
Ar 1.70831 8.37 0.0
Ar 8.57492 5.42543 0.0
Ar 8.45472 10.5395 0.0
Ar 5.5357 5.92743 0.0
Ar 4.02964 0.0499239 0.0
Ar 9.49406 7.1581 0.0
Ar 6.40225 1.35843 0.0
Ar 11.4692 0.848164 0.0
Ar 7.02964 5.58131 0.0
Ar 5.51502 0.525711 0.0
Ar 0.163777 11.5962 0.0
Ar 11.7114 6.79908 0.0
Ar 6.65517 2.51145 0.0
Ar 8.75618 0.348563 0.0
Ar 2.27049 1.41244 0.0
Ar 10.8141 4.09008 0.0
Ar 6.04948 3.44348 0.0
Ar 2.74925 11.7851 0.0
Ar 11.8021 3.58255 0.0
Ar 3.2723 8.26531 0.0
Ar 1.19477 1.959 0.0
Ar 8.13307 2.38136 0.0
Ar 7.64494 8.97769 0.0
Ar 10.717 6.47802 0.0
Ar 11.8501 8.65493 0.0
36
step 3380
Ar 8.20437 7.75709 0.0
Ar 0.945853 9.06554 0.0
Ar 4.97324 2.83417 0.0
Ar 10.1369 5.4643 0.0
Ar 5.09164 10.6342 0.0
Ar 9.70455 1.59466 0.0
Ar 3.48902 1.78812 0.0
Ar 7.80264 6.37288 0.0
Ar 1.20175 11.8749 0.0
Ar 0.229608 2.42171 0.0
Ar 3.83165 3.55288 0.0
Ar 1.79113 8.39257 0.0
Ar 8.65007 5.45459 0.0
Ar 8.57671 10.4862 0.0
Ar 5.42602 6.07808 0.0
Ar 4.0239 0.239908 0.0
Ar 9.37934 7.03741 0.0
Ar 6.33036 1.40712 0.0
Ar 11.412 0.85753 0.0
Ar 6.97246 5.68344 0.0
Ar 5.42322 0.787168 0.0
Ar 0.26047 11.5637 0.0
Ar 11.8221 6.74221 0.0
Ar 6.63567 2.47594 0.0
Ar 8.75361 0.239438 0.0
Ar 2.32648 1.39501 0.0
Ar 10.8513 4.22773 0.0
Ar 6.03228 3.53906 0.0
Ar 2.8484 11.7598 0.0
Ar 11.8824 3.55256 0.0
Ar 3.41769 8.32279 0.0
Ar 1.13764 1.94003 0.0
Ar 8.19109 2.23568 0.0
Ar 7.69583 8.86534 0.0
Ar 10.7222 6.52551 0.0
Ar 11.8264 8.83077 0.0
36
step 3400
Ar 8.19903 7.59002 0.0
Ar 0.888606 8.93937 0.0
Ar 5.00893 2.75472 0.0
Ar 10.1541 5.41145 0.0
Ar 5.0713 10.6369 0.0
Ar 9.69279 1.54413 0.0
Ar 3.40832 1.77818 0.0
Ar 7.68881 6.38326 0.0
Ar 1.20363 11.8743 0.0
Ar 0.236461 2.58458 0.0
Ar 3.84193 3.4562 0.0
Ar 1.90029 8.39771 0.0
Ar 8.71924 5.50632 0.0
Ar 8.69761 10.4344 0.0
Ar 5.32472 6.22677 0.0
Ar 4.00493 0.430757 0.0
Ar 9.25814 6.9105 0.0
Ar 6.27368 1.45979 0.0
Ar 11.3621 0.863613 0.0
Ar 6.86755 5.75003 0.0
Ar 5.30166 1.03627 0.0
Ar 0.148413 11.4698 0.0
Ar 11.9426 6.68969 0.0
Ar 6.61126 2.46718 0.0
Ar 8.75391 0.132678 0.0
Ar 2.38233 1.38575 0.0
Ar 10.8989 4.36685 0.0
Ar 6.00579 3.60251 0.0
Ar 2.96071 11.7498 0.0
Ar 11.945 3.53536 0.0
Ar 3.55592 8.38057 0.0
Ar 1.18662 1.86754 0.0
Ar 8.24543 2.08676 0.0
Ar 7.75813 8.73409 0.0
Ar 10.6917 6.5547 0.0
Ar 11.8095 9.00745 0.0
36
step 3420
Ar 8.19596 7.41323 0.0
Ar 0.861271 8.80859 0.0
Ar 5.05291 2.68878 0.0
Ar 10.178 5.36758 0.0
Ar 5.04982 10.6415 0.0
Ar 9.67212 1.4911 0.0
Ar 3.36149 1.77031 0.0
Ar 7.67893 6.46108 0.0
Ar 1.28282 11.9033 0.0
Ar 0.296246 2.5871 0.0
Ar 3.86837 3.34511 0.0
Ar 2.00775 8.40592 0.0
Ar 8.79021 5.58306 0.0
Ar 8.8176 10.386 0.0
Ar 5.23122 6.37322 0.0
Ar 3.97301 0.627551 0.0
Ar 9.12179 6.77553 0.0
Ar 6.24513 1.48871 0.0
Ar 11.3161 0.866433 0.0
Ar 6.68297 5.75901 0.0
Ar 5.11938 1.26441 0.0
Ar 11.9597 11.357 0.0
Ar 0.0406816 6.63518 0.0
Ar 6.58936 2.52616 0.0
Ar 8.75666 0.026747 0.0
Ar 2.39462 1.36769 0.0
Ar 10.9505 4.51129 0.0
Ar 5.97279 3.63078 0.0
Ar 3.08791 11.7587 0.0
Ar 11.9449 3.68213 0.0
Ar 3.68779 8.43843 0.0
Ar 1.24833 1.79163 0.0
Ar 8.30234 1.93362 0.0
Ar 7.83038 8.58161 0.0
Ar 10.6602 6.56659 0.0
Ar 11.7707 9.18485 0.0
36
step 3440
Ar 8.21511 7.3217 0.0
Ar 0.847745 8.67389 0.0
Ar 5.10662 2.62573 0.0
Ar 10.1972 5.34493 0.0
Ar 5.02725 10.6473 0.0
Ar 9.63884 1.4369 0.0
Ar 3.39254 1.77549 0.0
Ar 7.64527 6.46508 0.0
Ar 1.35253 11.9321 0.0
Ar 0.380398 2.54992 0.0
Ar 3.91103 3.21777 0.0
Ar 2.0993 8.42176 0.0
Ar 8.86617 5.66951 0.0
Ar 8.9366 10.343 0.0
Ar 5.14604 6.51639 0.0
Ar 3.93043 0.837453 0.0
Ar 8.99024 6.62782 0.0
Ar 6.20063 1.50079 0.0
Ar 11.2717 0.86635 0.0
Ar 6.50395 5.7791 0.0
Ar 4.92118 1.49972 0.0
Ar 11.7824 11.2551 0.0
Ar 0.120242 6.5795 0.0
Ar 6.5555 2.62651 0.0
Ar 8.76177 11.9203 0.0
Ar 2.32894 1.32314 0.0
Ar 11.0147 4.64911 0.0
Ar 5.93522 3.62253 0.0
Ar 3.22787 11.79 0.0
Ar 11.9208 3.86589 0.0
Ar 3.81395 8.49612 0.0
Ar 1.3108 1.7212 0.0
Ar 8.36915 1.77483 0.0
Ar 7.91072 8.40654 0.0
Ar 10.6275 6.55759 0.0
Ar 11.7397 9.359 0.0
36
step 3460
Ar 8.23669 7.34822 0.0
Ar 0.83859 8.54451 0.0
Ar 5.1852 2.60478 0.0
Ar 10.1794 5.3716 0.0
Ar 5.00334 10.6537 0.0
Ar 9.5875 1.38266 0.0
Ar 3.39464 1.85164 0.0
Ar 7.55709 6.35352 0.0
Ar 1.42215 11.9671 0.0
Ar 0.476376 2.51116 0.0
Ar 3.97088 3.06879 0.0
Ar 2.17315 8.44249 0.0
Ar 8.92117 5.51255 0.0
Ar 9.05419 10.3074 0.0
Ar 5.06946 6.65534 0.0
Ar 3.92337 0.97447 0.0
Ar 8.957 6.65452 0.0
Ar 6.1332 1.5362 0.0
Ar 11.2269 0.864026 0.0
Ar 6.33545 5.81429 0.0
Ar 4.70967 1.70676 0.0
Ar 11.6086 11.1578 0.0
Ar 0.186976 6.52329 0.0
Ar 6.49647 2.71939 0.0
Ar 8.76949 11.8119 0.0
Ar 2.29913 1.26063 0.0
Ar 11.1152 4.75917 0.0
Ar 5.8879 3.58538 0.0
Ar 3.37782 11.8461 0.0
Ar 11.8898 4.04424 0.0
Ar 3.93553 8.55346 0.0
Ar 1.32883 1.67373 0.0
Ar 8.45419 1.60875 0.0
Ar 7.97714 8.28073 0.0
Ar 10.5909 6.52446 0.0
Ar 11.7267 9.52512 0.0
36
step 3480
Ar 8.17609 7.24615 0.0
Ar 0.83964 8.42052 0.0
Ar 5.3251 2.69018 0.0
Ar 10.1392 5.4288 0.0
Ar 4.97778 10.6606 0.0
Ar 9.54302 1.32353 0.0
Ar 3.33742 2.0427 0.0
Ar 7.48036 6.2465 0.0
Ar 1.49635 0.0141723 0.0
Ar 0.581751 2.466 0.0
Ar 4.04995 2.88492 0.0
Ar 2.23093 8.46511 0.0
Ar 8.98883 5.30986 0.0
Ar 9.1695 10.2813 0.0
Ar 5.00138 6.78915 0.0
Ar 3.93506 0.943072 0.0
Ar 9.06625 6.59255 0.0
Ar 6.04773 1.60859 0.0
Ar 11.1806 0.860076 0.0
Ar 6.17694 5.86322 0.0
Ar 4.47445 1.86016 0.0
Ar 11.4363 11.0585 0.0
Ar 0.244572 6.46635 0.0
Ar 6.44536 2.73724 0.0
Ar 8.78048 11.7004 0.0
Ar 2.34765 1.17554 0.0
Ar 11.1665 4.92041 0.0
Ar 5.79676 3.58934 0.0
Ar 3.53494 11.9269 0.0
Ar 11.9146 4.16539 0.0
Ar 4.05367 8.61026 0.0
Ar 1.28136 1.65534 0.0
Ar 8.53439 1.43946 0.0
Ar 7.97566 8.40015 0.0
Ar 10.5467 6.46718 0.0
Ar 11.7227 9.69033 0.0
36
step 3500
Ar 8.06948 7.14528 0.0
Ar 0.853527 8.29984 0.0
Ar 5.38098 2.65332 0.0
Ar 10.0857 5.47372 0.0
Ar 4.95 10.6686 0.0
Ar 9.61973 1.24665 0.0
Ar 3.2585 2.1901 0.0
Ar 7.40979 6.1535 0.0
Ar 1.57897 0.0792129 0.0
Ar 0.655973 2.45953 0.0
Ar 4.1072 2.9107 0.0
Ar 2.27479 8.48751 0.0
Ar 9.06678 5.13433 0.0
Ar 9.28135 10.2671 0.0
Ar 4.94183 6.91706 0.0
Ar 3.91763 0.9386 0.0
Ar 9.22232 6.46706 0.0
Ar 5.94695 1.71835 0.0
Ar 11.1312 0.855311 0.0
Ar 6.02773 5.92441 0.0
Ar 4.35128 1.86834 0.0
Ar 11.2675 10.9464 0.0
Ar 0.294857 6.40772 0.0
Ar 6.42866 2.69864 0.0
Ar 8.79592 11.5841 0.0
Ar 2.40613 1.09314 0.0
Ar 11.1606 5.14051 0.0
Ar 5.72478 3.73264 0.0
Ar 3.6696 11.9507 0.0
Ar 11.9873 4.23827 0.0
Ar 4.16954 8.66617 0.0
Ar 1.27423 1.58945 0.0
Ar 8.49722 1.279 0.0
Ar 7.971 8.52897 0.0
Ar 10.5021 6.41824 0.0
Ar 11.7189 9.86756 0.0
36
step 3520
Ar 7.96592 7.03405 0.0
Ar 0.880169 8.1811 0.0
Ar 5.29315 2.62651 0.0
Ar 10.0293 5.46001 0.0
Ar 4.91909 10.6783 0.0
Ar 9.7274 1.16241 0.0
Ar 3.16434 2.29302 0.0
Ar 7.33958 6.07455 0.0
Ar 1.67431 0.170854 0.0
Ar 0.699317 2.49417 0.0
Ar 4.13193 3.18122 0.0
Ar 2.30642 8.50822 0.0
Ar 9.10418 4.96533 0.0
Ar 9.38846 10.268 0.0
Ar 4.89082 7.03853 0.0
Ar 3.82933 0.913607 0.0
Ar 9.389 6.31622 0.0
Ar 5.85688 1.76772 0.0
Ar 11.0741 0.85135 0.0
Ar 5.8857 5.99651 0.0
Ar 4.41676 1.83279 0.0
Ar 11.0926 10.8386 0.0
Ar 0.337475 6.3458 0.0
Ar 6.47043 2.69297 0.0
Ar 8.81777 11.4597 0.0
Ar 2.45569 1.01399 0.0
Ar 11.1588 5.36564 0.0
Ar 5.6709 3.88231 0.0
Ar 3.76372 11.8376 0.0
Ar 0.0482259 4.32347 0.0
Ar 4.28426 8.72059 0.0
Ar 1.3216 1.46414 0.0
Ar 8.43782 1.11598 0.0
Ar 7.9685 8.64054 0.0
Ar 10.4851 6.44348 0.0
Ar 11.7209 10.0408 0.0
36
step 3540
Ar 7.86495 6.91861 0.0
Ar 0.918565 8.06386 0.0
Ar 5.13621 2.73015 0.0
Ar 10.0742 5.37116 0.0
Ar 4.88247 10.692 0.0
Ar 9.83 1.07147 0.0
Ar 3.10092 2.38106 0.0
Ar 7.26337 6.00176 0.0
Ar 1.76121 0.276933 0.0
Ar 0.750667 2.51563 0.0
Ar 4.17226 3.41198 0.0
Ar 2.32693 8.52618 0.0
Ar 9.08427 4.78514 0.0
Ar 9.4903 10.2886 0.0
Ar 4.84852 7.15317 0.0
Ar 3.6607 0.822463 0.0
Ar 9.47542 6.21771 0.0
Ar 5.80768 1.71498 0.0
Ar 11.0008 0.850168 0.0
Ar 5.74777 6.07901 0.0
Ar 4.53455 1.92761 0.0
Ar 10.8464 10.8155 0.0
Ar 0.368964 6.27813 0.0
Ar 6.49992 2.70802 0.0
Ar 8.84934 11.3234 0.0
Ar 2.51722 0.95563 0.0
Ar 11.1594 5.60205 0.0
Ar 5.61399 3.99585 0.0
Ar 3.85566 11.6892 0.0
Ar 0.0975655 4.42254 0.0
Ar 4.39886 8.77257 0.0
Ar 1.38836 1.32672 0.0
Ar 8.40091 0.948459 0.0
Ar 7.96679 8.74475 0.0
Ar 10.5155 6.48873 0.0
Ar 11.7894 10.1288 0.0
36
step 3560
Ar 7.77725 6.81852 0.0
Ar 0.967624 7.94828 0.0
Ar 5.07779 2.95724 0.0
Ar 10.1888 5.19811 0.0
Ar 4.83412 10.7148 0.0
Ar 9.92155 0.975986 0.0
Ar 3.05538 2.45766 0.0
Ar 7.16861 5.91476 0.0
Ar 1.77656 0.272017 0.0
Ar 0.811679 2.52029 0.0
Ar 4.22856 3.61848 0.0
Ar 2.33699 8.54043 0.0
Ar 9.07142 4.62066 0.0
Ar 9.59453 10.3309 0.0
Ar 4.81542 7.26056 0.0
Ar 3.54651 0.733406 0.0
Ar 9.45211 6.19611 0.0
Ar 5.74097 1.69436 0.0
Ar 10.9235 0.849298 0.0
Ar 5.61057 6.17278 0.0
Ar 4.57088 1.9124 0.0
Ar 10.5835 10.7957 0.0
Ar 0.382156 6.20214 0.0
Ar 6.49134 2.71368 0.0
Ar 8.89242 11.1763 0.0
Ar 2.60621 0.999821 0.0
Ar 11.213 5.79829 0.0
Ar 5.54609 4.07906 0.0
Ar 3.95309 11.5396 0.0
Ar 0.139807 4.53236 0.0
Ar 4.51409 8.82066 0.0
Ar 1.45534 1.23503 0.0
Ar 8.38048 0.776721 0.0
Ar 7.96563 8.84617 0.0
Ar 10.5465 6.56704 0.0
Ar 11.8596 10.2104 0.0
36
step 3580
Ar 7.70488 6.73682 0.0
Ar 1.02658 7.83461 0.0
Ar 5.08575 3.16528 0.0
Ar 10.2925 5.05155 0.0
Ar 4.78226 10.7387 0.0
Ar 9.86868 0.892864 0.0
Ar 3.01867 2.52193 0.0
Ar 7.05413 5.81019 0.0
Ar 1.81259 0.132424 0.0
Ar 0.880632 2.51145 0.0
Ar 4.26613 3.84564 0.0
Ar 2.33703 8.55006 0.0
Ar 9.08063 4.4749 0.0
Ar 9.58948 10.2835 0.0
Ar 4.79247 7.35999 0.0
Ar 3.64997 0.579041 0.0
Ar 9.44579 6.15799 0.0
Ar 5.6637 1.71035 0.0
Ar 10.98 0.831519 0.0
Ar 5.47081 6.28017 0.0
Ar 4.60174 1.88522 0.0
Ar 10.4588 10.8408 0.0
Ar 0.376165 6.11741 0.0
Ar 6.44855 2.70761 0.0
Ar 8.92058 11.0547 0.0
Ar 2.50728 1.12717 0.0
Ar 11.3524 5.88818 0.0
Ar 5.4601 4.13853 0.0
Ar 4.04424 11.4114 0.0
Ar 0.176313 4.65499 0.0
Ar 4.63028 8.86287 0.0
Ar 1.485 1.27311 0.0
Ar 8.37176 0.600715 0.0
Ar 7.96511 8.94676 0.0
Ar 10.4848 6.72244 0.0
Ar 11.9142 10.2991 0.0
36
step 3600
Ar 7.63302 6.65222 0.0
Ar 1.0948 7.72355 0.0
Ar 5.11211 3.23032 0.0
Ar 10.3869 4.92825 0.0
Ar 4.84628 10.6544 0.0
Ar 9.76569 0.809206 0.0
Ar 2.98407 2.57264 0.0
Ar 6.93576 5.70936 0.0
Ar 1.86154 0.0141878 0.0
Ar 0.959341 2.48598 0.0
Ar 4.28472 4.1034 0.0
Ar 2.32729 8.55407 0.0
Ar 9.10874 4.34301 0.0
Ar 9.47471 10.0498 0.0
Ar 4.78055 7.45101 0.0
Ar 3.75637 0.417446 0.0
Ar 9.46507 6.11124 0.0
Ar 5.63898 1.74743 0.0
Ar 11.0755 0.808214 0.0
Ar 5.3258 6.4042 0.0
Ar 4.58838 1.88088 0.0
Ar 10.5152 10.9883 0.0
Ar 0.451452 6.03824 0.0
Ar 6.3725 2.69092 0.0
Ar 8.88409 11.0227 0.0
Ar 2.5011 1.23399 0.0
Ar 11.3892 5.94706 0.0
Ar 5.38584 4.27119 0.0
Ar 4.0115 11.4082 0.0
Ar 0.205702 4.80064 0.0
Ar 4.74718 8.89679 0.0
Ar 1.41586 1.3365 0.0
Ar 8.37592 0.420082 0.0
Ar 7.9659 9.04797 0.0
Ar 10.414 6.85534 0.0
Ar 11.9588 10.3914 0.0
36
step 3620
Ar 7.55264 6.55339 0.0
Ar 1.17159 7.61563 0.0
Ar 5.12553 3.22322 0.0
Ar 10.4737 4.82086 0.0
Ar 4.93836 10.5404 0.0
Ar 9.66914 0.717947 0.0
Ar 2.94763 2.6066 0.0
Ar 6.82277 5.62322 0.0
Ar 1.9166 11.9281 0.0
Ar 1.04821 2.44253 0.0
Ar 4.3002 4.34653 0.0
Ar 2.30781 8.55129 0.0
Ar 9.15253 4.22164 0.0
Ar 9.37563 9.81488 0.0
Ar 4.77572 7.54276 0.0
Ar 3.82994 0.379146 0.0
Ar 9.50843 6.06591 0.0
Ar 5.67719 1.79678 0.0
Ar 11.1505 0.782573 0.0
Ar 5.17808 6.53881 0.0
Ar 4.51695 1.89596 0.0
Ar 10.5624 11.1274 0.0
Ar 0.593358 5.95526 0.0
Ar 6.26633 2.67129 0.0
Ar 8.84258 11.0117 0.0
Ar 2.54504 1.32902 0.0
Ar 11.3375 5.98677 0.0
Ar 5.34319 4.45849 0.0
Ar 3.97236 11.32 0.0
Ar 0.225469 4.97639 0.0
Ar 4.86423 8.92076 0.0
Ar 1.30306 1.40695 0.0
Ar 8.39826 0.231507 0.0
Ar 7.9703 9.15171 0.0
Ar 10.3418 6.9573 0.0
Ar 11.995 10.4872 0.0
36
step 3640
Ar 7.46142 6.43891 0.0
Ar 1.25654 7.51142 0.0
Ar 5.14958 3.21718 0.0
Ar 10.5554 4.72752 0.0
Ar 5.01133 10.4346 0.0
Ar 9.56811 0.614912 0.0
Ar 2.9073 2.61852 0.0
Ar 6.71695 5.55187 0.0
Ar 1.97545 11.8591 0.0
Ar 1.13063 2.45824 0.0
Ar 4.25989 4.56859 0.0
Ar 2.27841 8.5403 0.0
Ar 9.20961 4.10881 0.0
Ar 9.26224 9.59838 0.0
Ar 4.76147 7.68215 0.0
Ar 3.88257 0.437845 0.0
Ar 9.57426 6.02826 0.0
Ar 5.66209 1.79459 0.0
Ar 11.2122 0.752093 0.0
Ar 5.0439 6.64104 0.0
Ar 4.45472 1.91975 0.0
Ar 10.6088 11.2665 0.0
Ar 0.759653 5.9699 0.0
Ar 6.17606 2.72344 0.0
Ar 8.80824 11.0019 0.0
Ar 2.57568 1.43222 0.0
Ar 11.2941 6.01245 0.0
Ar 5.36591 4.63506 0.0
Ar 3.96611 11.1307 0.0
Ar 0.185303 5.07362 0.0
Ar 4.98032 8.93364 0.0
Ar 1.22614 1.40851 0.0
Ar 8.44556 0.0309093 0.0
Ar 7.98446 9.26082 0.0
Ar 10.2663 7.02883 0.0
Ar 0.0233293 10.5874 0.0
36
step 3660
Ar 7.36219 6.31388 0.0
Ar 1.3486 7.40941 0.0
Ar 5.16379 3.21222 0.0
Ar 10.634 4.64747 0.0
Ar 5.06389 10.331 0.0
Ar 9.45542 0.494311 0.0
Ar 2.86226 2.60722 0.0
Ar 6.61193 5.48777 0.0
Ar 2.0366 11.8 0.0
Ar 1.21065 2.54416 0.0
Ar 4.20751 4.78302 0.0
Ar 2.23918 8.51937 0.0
Ar 9.27844 4.0033 0.0
Ar 9.12681 9.3907 0.0
Ar 4.7412 7.87476 0.0
Ar 3.93309 0.489649 0.0
Ar 9.6611 6.00203 0.0
Ar 5.5864 1.74764 0.0
Ar 11.2655 0.713373 0.0
Ar 4.9215 6.70857 0.0
Ar 4.41342 1.9476 0.0
Ar 10.6582 11.4121 0.0
Ar 0.954087 6.0676 0.0
Ar 6.12135 2.83127 0.0
Ar 8.80132 10.9244 0.0
Ar 2.59429 1.54846 0.0
Ar 11.2586 6.02081 0.0
Ar 5.40931 4.80267 0.0
Ar 3.97757 10.9465 0.0
Ar 0.0839682 5.11076 0.0
Ar 5.09267 8.93651 0.0
Ar 1.18084 1.334 0.0
Ar 8.49431 11.8975 0.0
Ar 8.01836 9.3768 0.0
Ar 10.1878 7.07067 0.0
Ar 0.0439188 10.6925 0.0
36
step 3680
Ar 7.26557 6.19123 0.0
Ar 1.44544 7.3032 0.0
Ar 5.08703 3.2304 0.0
Ar 10.7134 4.58141 0.0
Ar 5.09588 10.2222 0.0
Ar 9.36614 0.374305 0.0
Ar 2.82467 2.62963 0.0
Ar 6.48793 5.41346 0.0
Ar 2.09875 11.7475 0.0
Ar 1.30076 2.61098 0.0
Ar 4.17773 4.9962 0.0
Ar 2.19034 8.4864 0.0
Ar 9.35801 3.90436 0.0
Ar 9.01848 9.18647 0.0
Ar 4.71662 8.04101 0.0
Ar 3.98246 0.544372 0.0
Ar 9.76799 5.98782 0.0
Ar 5.49456 1.7284 0.0
Ar 11.3109 0.660143 0.0
Ar 4.79873 6.78746 0.0
Ar 4.38935 1.97655 0.0
Ar 10.7133 11.5712 0.0
Ar 1.13496 6.16771 0.0
Ar 6.14266 2.89005 0.0
Ar 8.83756 10.717 0.0
Ar 2.5905 1.62268 0.0
Ar 11.2227 6.01081 0.0
Ar 5.44662 4.9715 0.0
Ar 4.00869 10.7608 0.0
Ar 11.9699 5.17449 0.0
Ar 5.21038 8.9682 0.0
Ar 1.15284 1.2743 0.0
Ar 8.48808 11.8756 0.0
Ar 8.0259 9.50328 0.0
Ar 10.1086 7.08571 0.0
Ar 0.0566361 10.8031 0.0
36
step 3700
Ar 7.1787 6.07847 0.0
Ar 1.55262 7.21732 0.0
Ar 4.98288 3.24026 0.0
Ar 10.7992 4.53286 0.0
Ar 5.10925 10.1034 0.0
Ar 9.39634 0.308983 0.0
Ar 2.80234 2.73785 0.0
Ar 6.39354 5.34073 0.0
Ar 2.16122 11.7003 0.0
Ar 1.40513 2.65379 0.0
Ar 4.17386 5.20983 0.0
Ar 2.13251 8.43903 0.0
Ar 9.4476 3.81149 0.0
Ar 8.98215 8.97347 0.0
Ar 4.66716 8.13215 0.0
Ar 4.03203 0.610533 0.0
Ar 9.89593 5.97838 0.0
Ar 5.40621 1.7351 0.0
Ar 11.3501 0.592387 0.0
Ar 4.67525 6.88554 0.0
Ar 4.36496 2.00898 0.0
Ar 10.7737 11.7429 0.0
Ar 1.30382 6.25448 0.0
Ar 6.17382 2.92266 0.0
Ar 8.86608 10.5047 0.0
Ar 2.55359 1.60499 0.0
Ar 11.1575 6.00523 0.0
Ar 5.41851 5.12695 0.0
Ar 4.05944 10.5689 0.0
Ar 11.8548 5.23015 0.0
Ar 5.35236 9.07129 0.0
Ar 1.14014 1.23414 0.0
Ar 8.37518 11.7786 0.0
Ar 7.96867 9.65939 0.0
Ar 10.0323 7.08396 0.0
Ar 0.0609903 10.9206 0.0
36
step 3720
Ar 7.13346 6.00659 0.0
Ar 1.70785 7.30283 0.0
Ar 4.89334 3.22281 0.0
Ar 10.8943 4.50664 0.0
Ar 5.09606 10.0599 0.0
Ar 9.44636 0.240986 0.0
Ar 2.7672 2.8381 0.0
Ar 6.41284 5.26565 0.0
Ar 2.22363 11.6577 0.0
Ar 1.53081 2.67704 0.0
Ar 4.19066 5.42579 0.0
Ar 2.06602 8.37314 0.0
Ar 9.54637 3.72433 0.0
Ar 8.9348 8.77846 0.0
Ar 4.62288 8.20603 0.0
Ar 4.08341 0.693865 0.0
Ar 10.0388 5.95984 0.0
Ar 5.35409 1.75283 0.0
Ar 11.4661 0.625169 0.0
Ar 4.55202 7.00105 0.0
Ar 4.30626 2.05426 0.0
Ar 10.7556 11.8101 0.0
Ar 1.42854 6.18567 0.0
Ar 6.17356 2.9475 0.0
Ar 8.87908 10.2913 0.0
Ar 2.50316 1.59065 0.0
Ar 11.0242 6.05002 0.0
Ar 5.21436 5.24419 0.0
Ar 4.11373 10.3756 0.0
Ar 11.7722 5.22277 0.0
Ar 5.51128 9.09552 0.0
Ar 1.14299 1.20862 0.0
Ar 8.26182 11.6585 0.0
Ar 7.93364 9.81958 0.0
Ar 9.9626 7.07965 0.0
Ar 0.0559596 11.0473 0.0
36
step 3740
Ar 7.15397 6.00188 0.0
Ar 1.85869 7.36255 0.0
Ar 4.81745 3.17364 0.0
Ar 10.9739 4.48381 0.0
Ar 5.15006 10.0708 0.0
Ar 9.49607 0.156858 0.0
Ar 2.71372 2.91117 0.0
Ar 6.35719 5.12431 0.0
Ar 2.2857 11.6193 0.0
Ar 1.68145 2.68157 0.0
Ar 4.10434 5.67198 0.0
Ar 2.00875 8.35188 0.0
Ar 9.65332 3.64256 0.0
Ar 8.87769 8.60293 0.0
Ar 4.59423 8.27744 0.0
Ar 4.13854 0.799654 0.0
Ar 9.97473 5.91139 0.0
Ar 5.32508 1.78123 0.0
Ar 11.6325 0.712906 0.0
Ar 4.42978 7.12936 0.0
Ar 4.22565 2.10985 0.0
Ar 10.6835 11.8177 0.0
Ar 1.54576 6.09671 0.0
Ar 6.14243 2.96549 0.0
Ar 8.94204 10.1008 0.0
Ar 2.43833 1.60164 0.0
Ar 11.082 6.13066 0.0
Ar 5.12308 5.3372 0.0
Ar 4.07 10.2089 0.0
Ar 11.7063 5.21087 0.0
Ar 5.68335 9.01949 0.0
Ar 1.16191 1.19454 0.0
Ar 8.17148 11.5337 0.0
Ar 7.85585 9.95141 0.0
Ar 9.90087 7.06809 0.0
Ar 0.0402585 11.1857 0.0
36
step 3760
Ar 7.16705 5.98957 0.0
Ar 1.97562 7.24363 0.0
Ar 4.75493 3.09202 0.0
Ar 10.9809 4.4037 0.0
Ar 5.25785 10.0559 0.0
Ar 9.5534 0.0604832 0.0
Ar 2.74547 2.98404 0.0
Ar 6.28345 4.99308 0.0
Ar 2.34729 11.5846 0.0
Ar 1.75697 2.63817 0.0
Ar 3.94512 5.94957 0.0
Ar 1.97988 8.48652 0.0
Ar 9.76827 3.56652 0.0
Ar 8.81917 8.44107 0.0
Ar 4.58154 8.35107 0.0
Ar 4.19967 0.934396 0.0
Ar 9.8433 5.86199 0.0
Ar 5.28372 1.82973 0.0
Ar 11.7936 0.781088 0.0
Ar 4.30789 7.25868 0.0
Ar 4.15593 2.16179 0.0
Ar 10.6165 11.8389 0.0
Ar 1.66683 6.02977 0.0
Ar 6.08172 2.97503 0.0
Ar 9.03155 9.9164 0.0
Ar 2.35185 1.64103 0.0
Ar 11.1991 6.22731 0.0
Ar 5.13157 5.40793 0.0
Ar 3.97933 10.0507 0.0
Ar 11.7056 5.25712 0.0
Ar 5.83021 8.94429 0.0
Ar 1.19688 1.19077 0.0
Ar 8.0951 11.4005 0.0
Ar 7.75307 10.0764 0.0
Ar 9.84691 7.03819 0.0
Ar 0.0128177 11.3381 0.0
36
step 3780
Ar 7.16534 5.96163 0.0
Ar 2.08701 7.1107 0.0
Ar 4.72943 3.00597 0.0
Ar 10.9646 4.3107 0.0
Ar 5.35523 10.017 0.0
Ar 9.56537 11.9662 0.0
Ar 2.87286 3.06527 0.0
Ar 6.2005 4.88314 0.0
Ar 2.40832 11.5528 0.0
Ar 1.73659 2.55776 0.0
Ar 3.80702 6.23832 0.0
Ar 1.95208 8.6121 0.0
Ar 9.89399 3.49865 0.0
Ar 8.76382 8.28929 0.0
Ar 4.58387 8.43518 0.0
Ar 4.27074 1.10212 0.0
Ar 9.73174 5.83121 0.0
Ar 5.2149 1.90387 0.0
Ar 11.9598 0.831823 0.0
Ar 4.18219 7.37228 0.0
Ar 4.08549 2.17655 0.0
Ar 10.6087 11.8569 0.0
Ar 1.79289 5.98521 0.0
Ar 5.98925 2.97349 0.0
Ar 9.0977 9.72737 0.0
Ar 2.25417 1.68622 0.0
Ar 11.2847 6.33608 0.0
Ar 5.14563 5.47974 0.0
Ar 3.91047 9.88882 0.0
Ar 11.7231 5.3006 0.0
Ar 5.94951 8.8828 0.0
Ar 1.24392 1.1984 0.0
Ar 8.02398 11.2499 0.0
Ar 7.67474 10.2135 0.0
Ar 9.79761 6.98923 0.0
Ar 11.9727 11.5092 0.0
36
step 3800
Ar 7.15269 5.92269 0.0
Ar 2.19867 6.97862 0.0
Ar 4.76724 2.95885 0.0
Ar 10.9449 4.22647 0.0
Ar 5.44792 9.95234 0.0
Ar 9.50409 11.8776 0.0
Ar 2.99255 3.12152 0.0
Ar 6.10648 4.79237 0.0
Ar 2.46874 11.5232 0.0
Ar 1.66256 2.58065 0.0
Ar 3.67668 6.53227 0.0
Ar 1.92573 8.72604 0.0
Ar 10.0354 3.44344 0.0
Ar 8.71473 8.14585 0.0
Ar 4.59542 8.52764 0.0
Ar 4.36783 1.23843 0.0
Ar 9.63079 5.8141 0.0
Ar 5.12403 1.9976 0.0
Ar 0.140788 0.864043 0.0
Ar 4.05665 7.48344 0.0
Ar 3.96638 2.1891 0.0
Ar 10.6909 11.866 0.0
Ar 1.92223 5.95074 0.0
Ar 5.86145 2.95709 0.0
Ar 9.14808 9.5326 0.0
Ar 2.23625 1.63441 0.0
Ar 11.3564 6.44346 0.0
Ar 5.17126 5.54656 0.0
Ar 3.85904 9.72046 0.0
Ar 11.7268 5.32768 0.0
Ar 6.04365 8.83788 0.0
Ar 1.26986 1.20788 0.0
Ar 7.99373 11.1851 0.0
Ar 7.5727 10.2597 0.0
Ar 9.75025 6.92813 0.0
Ar 11.9171 11.7061 0.0
36
step 3820
Ar 7.13182 5.87602 0.0
Ar 2.336 6.89847 0.0
Ar 4.72463 3.03684 0.0
Ar 10.9244 4.15081 0.0
Ar 5.54176 9.86052 0.0
Ar 9.44911 11.786 0.0
Ar 3.11384 3.15222 0.0
Ar 6.0012 4.71918 0.0
Ar 2.52863 11.4954 0.0
Ar 1.57958 2.62639 0.0
Ar 3.49449 6.72493 0.0
Ar 1.90128 8.83578 0.0
Ar 10.1882 3.39814 0.0
Ar 8.67479 8.00988 0.0
Ar 4.60579 8.62729 0.0
Ar 4.45816 1.24477 0.0
Ar 9.53437 5.79444 0.0
Ar 5.10811 2.03767 0.0
Ar 0.316354 0.880048 0.0
Ar 3.97873 7.71043 0.0
Ar 3.8086 2.2924 0.0
Ar 10.7827 11.8745 0.0
Ar 2.04034 5.86751 0.0
Ar 5.76194 2.92534 0.0
Ar 9.1888 9.3286 0.0
Ar 2.29311 1.57737 0.0
Ar 11.4246 6.53382 0.0
Ar 5.21191 5.60282 0.0
Ar 3.82375 9.53808 0.0
Ar 11.7133 5.35599 0.0
Ar 6.11456 8.81207 0.0
Ar 1.2519 1.20854 0.0
Ar 8.03589 11.277 0.0
Ar 7.4079 10.1468 0.0
Ar 9.7037 6.87338 0.0
Ar 11.8459 11.9205 0.0
36
step 3840
Ar 7.10402 5.82371 0.0
Ar 2.40134 6.86907 0.0
Ar 4.5554 3.17912 0.0
Ar 10.9592 4.14052 0.0
Ar 5.63643 9.74482 0.0
Ar 9.40401 11.6916 0.0
Ar 3.20514 3.22072 0.0
Ar 5.88649 4.66168 0.0
Ar 2.588 11.4694 0.0
Ar 1.51299 2.64188 0.0
Ar 3.37823 6.86982 0.0
Ar 1.87922 8.94379 0.0
Ar 10.2933 3.30175 0.0
Ar 8.64768 7.88085 0.0
Ar 4.63604 8.75265 0.0
Ar 4.46742 1.17935 0.0
Ar 9.43747 5.7556 0.0
Ar 5.15481 2.07636 0.0
Ar 0.359317 0.902498 0.0
Ar 3.90734 7.97127 0.0
Ar 3.71711 2.34475 0.0
Ar 10.7911 11.8763 0.0
Ar 2.15052 5.74404 0.0
Ar 5.75626 2.91168 0.0
Ar 9.22136 9.11149 0.0
Ar 2.37239 1.55217 0.0
Ar 11.4922 6.60186 0.0
Ar 5.26666 5.64573 0.0
Ar 3.79659 9.34432 0.0
Ar 11.6856 5.39403 0.0
Ar 6.16741 8.80284 0.0
Ar 1.37929 1.27153 0.0
Ar 8.08211 11.3592 0.0
Ar 7.24758 10.0428 0.0
Ar 9.65747 6.84462 0.0
Ar 11.8025 0.0761229 0.0
36
step 3860
Ar 7.06953 5.76709 0.0
Ar 2.18969 6.84211 0.0
Ar 4.37828 3.28684 0.0
Ar 11.0361 4.18472 0.0
Ar 5.70181 9.65573 0.0
Ar 9.35836 11.5951 0.0
Ar 3.2385 3.39942 0.0
Ar 5.76583 4.61559 0.0
Ar 2.64693 11.4452 0.0
Ar 1.4593 2.62567 0.0
Ar 3.54552 7.02182 0.0
Ar 1.86028 9.05071 0.0
Ar 10.3629 3.1641 0.0
Ar 8.63905 7.75833 0.0
Ar 4.78951 8.86739 0.0
Ar 4.46101 1.12693 0.0
Ar 9.3406 5.71001 0.0
Ar 5.1266 2.06332 0.0
Ar 0.435191 1.05117 0.0
Ar 3.79935 8.19545 0.0
Ar 3.72821 2.27332 0.0
Ar 10.6738 11.8577 0.0
Ar 2.26604 5.63406 0.0
Ar 5.79039 2.98229 0.0
Ar 9.24481 8.87684 0.0
Ar 2.54499 1.57207 0.0
Ar 11.5596 6.6467 0.0
Ar 5.33238 5.6761 0.0
Ar 3.69432 9.18853 0.0
Ar 11.6463 5.44309 0.0
Ar 6.2349 8.76084 0.0
Ar 1.47836 1.34831 0.0
Ar 8.14143 11.4372 0.0
Ar 7.08185 9.94019 0.0
Ar 9.60565 6.8333 0.0
Ar 11.7726 0.102624 0.0
36
step 3880
Ar 7.02761 5.70715 0.0
Ar 1.99018 6.79692 0.0
Ar 4.23169 3.3559 0.0
Ar 11.1097 4.22888 0.0
Ar 5.73385 9.63429 0.0
Ar 9.31292 11.5 0.0
Ar 3.2547 3.56848 0.0
Ar 5.64279 4.57423 0.0
Ar 2.70575 11.4226 0.0
Ar 1.41509 2.57758 0.0
Ar 3.70649 7.18345 0.0
Ar 1.84585 9.15669 0.0
Ar 10.4426 3.04208 0.0
Ar 8.65614 7.64071 0.0
Ar 4.96628 8.9688 0.0
Ar 4.44862 1.10152 0.0
Ar 9.24713 5.67702 0.0
Ar 5.06286 2.05064 0.0
Ar 0.48948 1.19976 0.0
Ar 3.72588 8.17341 0.0
Ar 3.75813 2.204 0.0
Ar 10.5289 11.8341 0.0
Ar 2.38216 5.54747 0.0
Ar 5.81324 3.06873 0.0
Ar 9.25734 8.621 0.0
Ar 2.76664 1.6189 0.0
Ar 11.6262 6.66928 0.0
Ar 5.40645 5.69687 0.0
Ar 3.54599 9.28298 0.0
Ar 11.5972 5.49968 0.0
Ar 6.33783 8.66116 0.0
Ar 1.5643 1.444 0.0
Ar 8.21879 11.5151 0.0
Ar 6.89439 9.82543 0.0
Ar 9.53853 6.82505 0.0
Ar 11.7484 0.126125 0.0
36
step 3900
Ar 6.97616 5.64472 0.0
Ar 1.80203 6.73337 0.0
Ar 4.23448 3.36307 0.0
Ar 11.1802 4.2749 0.0
Ar 5.80543 9.69207 0.0
Ar 9.31525 11.4084 0.0
Ar 3.13107 3.75332 0.0
Ar 5.51945 4.534 0.0
Ar 2.76472 11.4007 0.0
Ar 1.37181 2.52443 0.0
Ar 3.86719 7.13346 0.0
Ar 1.8381 9.26242 0.0
Ar 10.5316 2.93653 0.0
Ar 8.6839 7.51228 0.0
Ar 5.03612 8.97809 0.0
Ar 4.42237 1.10065 0.0
Ar 9.15827 5.66429 0.0
Ar 4.98244 2.06395 0.0
Ar 0.522493 1.33265 0.0
Ar 3.67209 8.26287 0.0
Ar 3.83639 2.15498 0.0
Ar 10.3832 11.8097 0.0
Ar 2.49347 5.48135 0.0
Ar 5.81223 3.14881 0.0
Ar 9.27072 8.36094 0.0
Ar 2.95665 1.66018 0.0
Ar 11.6916 6.67491 0.0
Ar 5.48965 5.7066 0.0
Ar 3.39333 9.48071 0.0
Ar 11.5405 5.55562 0.0
Ar 6.43338 8.58583 0.0
Ar 1.68589 1.54127 0.0
Ar 8.27039 11.5946 0.0
Ar 6.75464 9.69467 0.0
Ar 9.45719 6.81086 0.0
Ar 11.7156 0.162656 0.0
36
step 3920
Ar 6.91066 5.58091 0.0
Ar 1.62125 6.65716 0.0
Ar 4.2537 3.33764 0.0
Ar 11.2507 4.33058 0.0
Ar 5.6491 9.79818 0.0
Ar 9.36094 11.305 0.0
Ar 3.00069 3.93517 0.0
Ar 5.39824 4.49498 0.0
Ar 2.82419 11.3782 0.0
Ar 1.29828 2.54093 0.0
Ar 4.03027 7.01494 0.0
Ar 1.84076 9.36923 0.0
Ar 10.6262 2.842 0.0
Ar 8.58858 7.36514 0.0
Ar 5.02749 8.90549 0.0
Ar 4.37607 1.11801 0.0
Ar 9.07343 5.67195 0.0
Ar 4.95606 2.10197 0.0
Ar 0.571825 1.46658 0.0
Ar 3.61735 8.44845 0.0
Ar 3.99106 2.18118 0.0
Ar 10.2605 11.7943 0.0
Ar 2.59961 5.42607 0.0
Ar 5.78721 3.22969 0.0
Ar 9.33966 8.1683 0.0
Ar 3.0201 1.63773 0.0
Ar 11.757 6.67607 0.0
Ar 5.58473 5.69847 0.0
Ar 3.24231 9.6539 0.0
Ar 11.4777 5.59595 0.0
Ar 6.50903 8.54395 0.0
Ar 1.84136 1.5556 0.0
Ar 8.2728 11.6812 0.0
Ar 6.92631 9.5602 0.0
Ar 9.44023 6.72712 0.0
Ar 11.6745 0.207671 0.0
36
step 3940
Ar 6.82416 5.5175 0.0
Ar 1.44273 6.57379 0.0
Ar 4.27497 3.29212 0.0
Ar 11.3222 4.40235 0.0
Ar 5.5218 9.91789 0.0
Ar 9.31457 11.1579 0.0
Ar 2.88403 4.11714 0.0
Ar 5.28375 4.45462 0.0
Ar 2.88449 11.3525 0.0
Ar 1.21184 2.5534 0.0
Ar 4.19063 6.9079 0.0
Ar 1.86042 9.47908 0.0
Ar 10.7242 2.75414 0.0
Ar 8.41889 7.2334 0.0
Ar 4.99434 8.80146 0.0
Ar 4.31797 1.15654 0.0
Ar 8.98312 5.67652 0.0
Ar 5.16892 2.1399 0.0
Ar 0.649758 1.61146 0.0
Ar 3.56933 8.64907 0.0
Ar 3.93279 2.25133 0.0
Ar 10.2352 11.8296 0.0
Ar 2.70362 5.36844 0.0
Ar 5.7346 3.31662 0.0
Ar 9.42899 7.9872 0.0
Ar 3.05914 1.59832 0.0
Ar 11.8253 6.67859 0.0
Ar 5.69497 5.66668 0.0
Ar 3.08516 9.80456 0.0
Ar 11.4099 5.61237 0.0
Ar 6.5618 8.49922 0.0
Ar 1.99307 1.55564 0.0
Ar 8.28309 11.7647 0.0
Ar 7.10154 9.44218 0.0
Ar 9.48271 6.61906 0.0
Ar 11.626 0.256893 0.0
36
step 3960
Ar 6.75901 5.4488 0.0
Ar 1.25899 6.48735 0.0
Ar 4.32568 3.2672 0.0
Ar 11.394 4.49195 0.0
Ar 5.39503 10.0132 0.0
Ar 9.24098 11.0173 0.0
Ar 2.77218 4.30412 0.0
Ar 5.17946 4.40932 0.0
Ar 2.94554 11.3182 0.0
Ar 1.16951 2.60158 0.0
Ar 4.35127 6.80344 0.0
Ar 1.90217 9.59385 0.0
Ar 10.8247 2.67004 0.0
Ar 8.28366 7.09916 0.0
Ar 4.96239 8.71204 0.0
Ar 4.24878 1.23112 0.0
Ar 8.87132 5.65136 0.0
Ar 5.36625 2.19296 0.0
Ar 0.715348 1.69816 0.0
Ar 3.52583 8.87128 0.0
Ar 3.89116 2.303 0.0
Ar 10.2299 11.8731 0.0
Ar 2.8076 5.3044 0.0
Ar 5.65025 3.40369 0.0
Ar 9.50202 7.77407 0.0
Ar 3.14481 1.53975 0.0
Ar 11.8968 6.67096 0.0
Ar 5.77392 5.61783 0.0
Ar 2.91858 9.93713 0.0
Ar 11.3436 5.61716 0.0
Ar 6.5931 8.4383 0.0
Ar 2.06631 1.57268 0.0
Ar 8.31383 11.8373 0.0
Ar 7.28013 9.34688 0.0
Ar 9.52834 6.57477 0.0
Ar 11.5676 0.306521 0.0
36
step 3980
Ar 6.84061 5.35394 0.0
Ar 1.05858 6.40142 0.0
Ar 4.43329 3.29929 0.0
Ar 11.4661 4.57913 0.0
Ar 5.26421 10.0883 0.0
Ar 9.16549 10.906 0.0
Ar 2.65017 4.32022 0.0
Ar 5.06863 4.38434 0.0
Ar 3.00545 11.2663 0.0
Ar 1.20753 2.76528 0.0
Ar 4.51384 6.69851 0.0
Ar 1.881 9.68302 0.0
Ar 10.9277 2.58754 0.0
Ar 8.18353 6.95744 0.0
Ar 4.92837 8.63916 0.0
Ar 4.20915 1.31181 0.0
Ar 8.75624 5.63534 0.0
Ar 5.53711 2.27046 0.0
Ar 0.729653 1.65114 0.0
Ar 3.48214 9.11388 0.0
Ar 3.87189 2.33781 0.0
Ar 10.2218 11.9081 0.0
Ar 2.92392 5.41055 0.0
Ar 5.54707 3.45218 0.0
Ar 9.56006 7.54624 0.0
Ar 3.2149 1.45062 0.0
Ar 11.9753 6.64212 0.0
Ar 5.69426 5.57695 0.0
Ar 2.83245 10.0922 0.0
Ar 11.2854 5.64192 0.0
Ar 6.62151 8.38361 0.0
Ar 2.07267 1.6059 0.0
Ar 8.36475 11.8943 0.0
Ar 7.45264 9.24766 0.0
Ar 9.55659 6.54305 0.0
Ar 11.496 0.354291 0.0
